# vtk DataFile Version 3.0
Visualize mesh data
ASCII

DATASET UNSTRUCTURED_GRID
POINTS 225 double
0.00000000 0.00000000 0.00000000
0.09519403 0.00000000 0.00090627
0.04759701 0.08244044 0.00090627
-0.04759701 0.08244044 0.00090627
-0.09519403 0.00000000 0.00090627
-0.04759701 -0.08244044 0.00090627
0.04759701 -0.08244044 0.00090627
0.19035354 0.00000000 0.00362476
0.16485099 0.09517677 0.00362476
0.09517677 0.16485099 0.00362476
0.00000000 0.19035354 0.00362476
-0.09517677 0.16485099 0.00362476
-0.16485099 0.09517677 0.00362476
-0.19035354 0.00000000 0.00362476
-0.16485099 -0.09517677 0.00362476
-0.09517677 -0.16485099 0.00362476
0.00000000 -0.19035354 0.00362476
0.09517677 -0.16485099 0.00362476
0.16485099 -0.09517677 0.00362476
0.28544405 0.00000000 0.00815448
0.26822966 0.09762762 0.00815448
0.21866283 0.18347991 0.00815448
0.14272203 0.24720180 0.00815448
0.04956684 0.28110752 0.00815448
-0.04956684 0.28110752 0.00815448
-0.14272203 0.24720180 0.00815448
-0.21866283 0.18347991 0.00815448
-0.26822966 0.09762762 0.00815448
-0.28544405 0.00000000 0.00815448
-0.26822966 -0.09762762 0.00815448
-0.21866283 -0.18347991 0.00815448
-0.14272203 -0.24720180 0.00815448
-0.04956684 -0.28110752 0.00815448
0.04956684 -0.28110752 0.00815448
0.14272203 -0.24720180 0.00815448
0.21866283 -0.18347991 0.00815448
0.26822966 -0.09762762 0.00815448
0.38043109 0.00000000 0.01449379
0.36746821 0.09846281 0.01449379
0.32946298 0.19021554 0.01449379
0.26900539 0.26900539 0.01449379
0.19021554 0.32946298 0.01449379
0.09846281 0.36746821 0.01449379
0.00000000 0.38043109 0.01449379
-0.09846281 0.36746821 0.01449379
-0.19021554 0.32946298 0.01449379
-0.26900539 0.26900539 0.01449379
-0.32946298 0.19021554 0.01449379
-0.36746821 0.09846281 0.01449379
-0.38043109 0.00000000 0.01449379
-0.36746821 -0.09846281 0.01449379
-0.32946298 -0.19021554 0.01449379
-0.26900539 -0.26900539 0.01449379
-0.19021554 -0.32946298 0.01449379
-0.09846281 -0.36746821 0.01449379
0.00000000 -0.38043109 0.01449379
0.09846281 -0.36746821 0.01449379
0.19021554 -0.32946298 0.01449379
0.26900539 -0.26900539 0.01449379
0.32946298 -0.19021554 0.01449379
0.36746821 -0.09846281 0.01449379
0.47528023 0.00000000 0.02264039
0.46489421 0.09881631 0.02264039
0.43419009 0.19331388 0.02264039
0.38450977 0.27936271 0.02264039
0.31802455 0.35320202 0.02264039
0.23764011 0.41160473 0.02264039
0.14686966 0.45201835 0.02264039
0.04968031 0.47267658 0.02264039
-0.04968031 0.47267658 0.02264039
-0.14686966 0.45201835 0.02264039
-0.23764011 0.41160473 0.02264039
-0.31802455 0.35320202 0.02264039
-0.38450977 0.27936271 0.02264039
-0.43419009 0.19331388 0.02264039
-0.46489421 0.09881631 0.02264039
-0.47528023 0.00000000 0.02264039
-0.46489421 -0.09881631 0.02264039
-0.43419009 -0.19331388 0.02264039
-0.38450977 -0.27936271 0.02264039
-0.31802455 -0.35320202 0.02264039
-0.23764011 -0.41160473 0.02264039
-0.14686966 -0.45201835 0.02264039
-0.04968031 -0.47267658 0.02264039
0.04968031 -0.47267658 0.02264039
0.14686966 -0.45201835 0.02264039
0.23764011 -0.41160473 0.02264039
0.31802455 -0.35320202 0.02264039
0.38450977 -0.27936271 0.02264039
0.43419009 -0.19331388 0.02264039
0.46489421 -0.09881631 0.02264039
0.56995708 0.00000000 0.03259132
0.56129813 0.09897200 0.03259132
0.53558445 0.19493680 0.03259132
0.49359727 0.28497851 0.03259132
0.43661243 0.36636132 0.03259132
0.36636132 0.43661243 0.03259132
0.28497851 0.49359727 0.03259132
0.19493680 0.53558445 0.03259132
0.09897200 0.56129813 0.03259132
0.00000000 0.56995708 0.03259132
-0.09897200 0.56129813 0.03259132
-0.19493680 0.53558445 0.03259132
-0.28497851 0.49359727 0.03259132
-0.36636132 0.43661243 0.03259132
-0.43661243 0.36636132 0.03259132
-0.49359727 0.28497851 0.03259132
-0.53558445 0.19493680 0.03259132
-0.56129813 0.09897200 0.03259132
-0.56995708 0.00000000 0.03259132
-0.56129813 -0.09897200 0.03259132
-0.53558445 -0.19493680 0.03259132
-0.49359727 -0.28497851 0.03259132
-0.43661243 -0.36636132 0.03259132
-0.36636132 -0.43661243 0.03259132
-0.28497851 -0.49359727 0.03259132
-0.19493680 -0.53558445 0.03259132
-0.09897200 -0.56129813 0.03259132
0.00000000 -0.56995708 0.03259132
0.09897200 -0.56129813 0.03259132
0.19493680 -0.53558445 0.03259132
0.28497851 -0.49359727 0.03259132
0.36636132 -0.43661243 0.03259132
0.43661243 -0.36636132 0.03259132
0.49359727 -0.28497851 0.03259132
0.53558445 -0.19493680 0.03259132
0.56129813 -0.09897200 0.03259132
0.66442728 0.00000000 0.04434299
0.65700614 0.09902775 0.04434299
0.63490862 0.19584338 0.04434299
0.59862828 0.28828418 0.04434299
0.54897559 0.37428522 0.04434299
0.48705965 0.45192531 0.04434299
0.41426364 0.51947016 0.04434299
0.33221364 0.57541090 0.04434299
0.24274254 0.61849791 0.04434299
0.14784898 0.64776868 0.04434299
0.04965271 0.66256940 0.04434299
-0.04965271 0.66256940 0.04434299
-0.14784898 0.64776868 0.04434299
-0.24274254 0.61849791 0.04434299
-0.33221364 0.57541090 0.04434299
-0.41426364 0.51947016 0.04434299
-0.48705965 0.45192531 0.04434299
-0.54897559 0.37428522 0.04434299
-0.59862828 0.28828418 0.04434299
-0.63490862 0.19584338 0.04434299
-0.65700614 0.09902775 0.04434299
-0.66442728 0.00000000 0.04434299
-0.65700614 -0.09902775 0.04434299
-0.63490862 -0.19584338 0.04434299
-0.59862828 -0.28828418 0.04434299
-0.54897559 -0.37428522 0.04434299
-0.48705965 -0.45192531 0.04434299
-0.41426364 -0.51947016 0.04434299
-0.33221364 -0.57541090 0.04434299
-0.24274254 -0.61849791 0.04434299
-0.14784898 -0.64776868 0.04434299
-0.04965271 -0.66256940 0.04434299
0.04965271 -0.66256940 0.04434299
0.14784898 -0.64776868 0.04434299
0.24274254 -0.61849791 0.04434299
0.33221364 -0.57541090 0.04434299
0.41426364 -0.51947016 0.04434299
0.48705965 -0.45192531 0.04434299
0.54897559 -0.37428522 0.04434299
0.59862828 -0.28828418 0.04434299
0.63490862 -0.19584338 0.04434299
0.65700614 -0.09902775 0.04434299
0.75865662 0.00000000 0.05789113
0.75216621 0.09902456 0.05789113
0.73280603 0.19635478 0.05789113
0.70090735 0.29032531 0.05789113
0.65701592 0.37932831 0.05789113
0.60188276 0.46184090 0.05789113
0.53645122 0.53645122 0.05789113
0.46184090 0.60188276 0.05789113
0.37932831 0.65701592 0.05789113
0.29032531 0.70090735 0.05789113
0.19635478 0.73280603 0.05789113
0.09902456 0.75216621 0.05789113
0.00000000 0.75865662 0.05789113
-0.09902456 0.75216621 0.05789113
-0.19635478 0.73280603 0.05789113
-0.29032531 0.70090735 0.05789113
-0.37932831 0.65701592 0.05789113
-0.46184090 0.60188276 0.05789113
-0.53645122 0.53645122 0.05789113
-0.60188276 0.46184090 0.05789113
-0.65701592 0.37932831 0.05789113
-0.70090735 0.29032531 0.05789113
-0.73280603 0.19635478 0.05789113
-0.75216621 0.09902456 0.05789113
-0.75865662 0.00000000 0.05789113
-0.75216621 -0.09902456 0.05789113
-0.73280603 -0.19635478 0.05789113
-0.70090735 -0.29032531 0.05789113
-0.65701592 -0.37932831 0.05789113
-0.60188276 -0.46184090 0.05789113
-0.53645122 -0.53645122 0.05789113
-0.46184090 -0.60188276 0.05789113
-0.37932831 -0.65701592 0.05789113
-0.29032531 -0.70090735 0.05789113
-0.19635478 -0.73280603 0.05789113
-0.09902456 -0.75216621 0.05789113
0.00000000 -0.75865662 0.05789113
0.09902456 -0.75216621 0.05789113
0.19635478 -0.73280603 0.05789113
0.29032531 -0.70090735 0.05789113
0.37932831 -0.65701592 0.05789113
0.46184090 -0.60188276 0.05789113
0.53645122 -0.53645122 0.05789113
0.60188276 -0.46184090 0.05789113
0.65701592 -0.37932831 0.05789113
0.70090735 -0.29032531 0.05789113
0.73280603 -0.19635478 0.05789113
0.75216621 -0.09902456 0.05789113
0.84684592 0.09898209 0.07323082
0.82962871 0.19662562 0.07323082
0.65313786 0.54804778 0.07323082
0.58509713 0.62016672 0.07323082
-0.80119222 -0.29161012 0.07323082
-0.76192099 -0.38265109 0.07323082
0.80119222 -0.29161012 0.07323082
0.82962871 -0.19662562 0.07323082

CELLS 396 1584
3 1 2 0
3 2 3 0
3 3 4 0
3 4 5 0
3 5 6 0
3 6 1 0
3 7 8 1
3 1 8 2
3 8 9 2
3 9 10 2
3 2 10 3
3 10 11 3
3 11 12 3
3 3 12 4
3 12 13 4
3 13 14 4
3 4 14 5
3 14 15 5
3 15 16 5
3 5 16 6
3 16 17 6
3 17 18 6
3 6 18 1
3 18 7 1
3 19 20 7
3 7 20 8
3 20 21 8
3 8 21 9
3 21 22 9
3 22 23 9
3 9 23 10
3 23 24 10
3 10 24 11
3 24 25 11
3 25 26 11
3 11 26 12
3 26 27 12
3 12 27 13
3 27 28 13
3 28 29 13
3 13 29 14
3 29 30 14
3 14 30 15
3 30 31 15
3 31 32 15
3 15 32 16
3 32 33 16
3 16 33 17
3 33 34 17
3 34 35 17
3 17 35 18
3 35 36 18
3 18 36 7
3 36 19 7
3 37 38 19
3 19 38 20
3 38 39 20
3 20 39 21
3 39 40 21
3 21 40 22
3 40 41 22
3 41 42 22
3 22 42 23
3 42 43 23
3 23 43 24
3 43 44 24
3 24 44 25
3 44 45 25
3 45 46 25
3 25 46 26
3 46 47 26
3 26 47 27
3 47 48 27
3 27 48 28
3 48 49 28
3 49 50 28
3 28 50 29
3 50 51 29
3 29 51 30
3 51 52 30
3 30 52 31
3 52 53 31
3 53 54 31
3 31 54 32
3 54 55 32
3 32 55 33
3 55 56 33
3 33 56 34
3 56 57 34
3 57 58 34
3 34 58 35
3 58 59 35
3 35 59 36
3 59 60 36
3 36 60 19
3 60 37 19
3 61 62 37
3 37 62 38
3 62 63 38
3 38 63 39
3 63 64 39
3 39 64 40
3 64 65 40
3 40 65 41
3 65 66 41
3 66 67 41
3 41 67 42
3 67 68 42
3 42 68 43
3 68 69 43
3 43 69 44
3 69 70 44
3 44 70 45
3 70 71 45
3 71 72 45
3 45 72 46
3 72 73 46
3 46 73 47
3 73 74 47
3 47 74 48
3 74 75 48
3 48 75 49
3 75 76 49
3 76 77 49
3 49 77 50
3 77 78 50
3 50 78 51
3 78 79 51
3 51 79 52
3 79 80 52
3 52 80 53
3 80 81 53
3 81 82 53
3 53 82 54
3 82 83 54
3 54 83 55
3 83 84 55
3 55 84 56
3 84 85 56
3 56 85 57
3 85 86 57
3 86 87 57
3 57 87 58
3 87 88 58
3 58 88 59
3 88 89 59
3 59 89 60
3 89 90 60
3 60 90 37
3 90 61 37
3 91 92 61
3 61 92 62
3 92 93 62
3 62 93 63
3 93 94 63
3 63 94 64
3 94 95 64
3 64 95 65
3 95 96 65
3 65 96 66
3 96 97 66
3 97 98 66
3 66 98 67
3 98 99 67
3 67 99 68
3 99 100 68
3 68 100 69
3 100 101 69
3 69 101 70
3 101 102 70
3 70 102 71
3 102 103 71
3 103 104 71
3 71 104 72
3 104 105 72
3 72 105 73
3 105 106 73
3 73 106 74
3 106 107 74
3 74 107 75
3 107 108 75
3 75 108 76
3 108 109 76
3 109 110 76
3 76 110 77
3 110 111 77
3 77 111 78
3 111 112 78
3 78 112 79
3 112 113 79
3 79 113 80
3 113 114 80
3 80 114 81
3 114 115 81
3 115 116 81
3 81 116 82
3 116 117 82
3 82 117 83
3 117 118 83
3 83 118 84
3 118 119 84
3 84 119 85
3 119 120 85
3 85 120 86
3 120 121 86
3 121 122 86
3 86 122 87
3 122 123 87
3 87 123 88
3 123 124 88
3 88 124 89
3 124 125 89
3 89 125 90
3 125 126 90
3 90 126 61
3 126 91 61
3 127 128 91
3 91 128 92
3 128 129 92
3 92 129 93
3 129 130 93
3 93 130 94
3 130 131 94
3 94 131 95
3 131 132 95
3 95 132 96
3 132 133 96
3 96 133 97
3 133 134 97
3 134 135 97
3 97 135 98
3 135 136 98
3 98 136 99
3 136 137 99
3 99 137 100
3 137 138 100
3 100 138 101
3 138 139 101
3 101 139 102
3 139 140 102
3 102 140 103
3 140 141 103
3 141 142 103
3 103 142 104
3 142 143 104
3 104 143 105
3 143 144 105
3 105 144 106
3 144 145 106
3 106 145 107
3 145 146 107
3 107 146 108
3 146 147 108
3 108 147 109
3 147 148 109
3 148 149 109
3 109 149 110
3 149 150 110
3 110 150 111
3 150 151 111
3 111 151 112
3 151 152 112
3 112 152 113
3 152 153 113
3 113 153 114
3 153 154 114
3 114 154 115
3 154 155 115
3 155 156 115
3 115 156 116
3 156 157 116
3 116 157 117
3 157 158 117
3 117 158 118
3 158 159 118
3 118 159 119
3 159 160 119
3 119 160 120
3 160 161 120
3 120 161 121
3 161 162 121
3 162 163 121
3 121 163 122
3 163 164 122
3 122 164 123
3 164 165 123
3 123 165 124
3 165 166 124
3 124 166 125
3 166 167 125
3 125 167 126
3 167 168 126
3 126 168 91
3 168 127 91
3 169 170 127
3 127 170 128
3 170 171 128
3 128 171 129
3 171 172 129
3 129 172 130
3 172 173 130
3 130 173 131
3 173 174 131
3 131 174 132
3 174 175 132
3 132 175 133
3 175 176 133
3 133 176 134
3 176 177 134
3 177 178 134
3 134 178 135
3 178 179 135
3 135 179 136
3 179 180 136
3 136 180 137
3 180 181 137
3 137 181 138
3 181 182 138
3 138 182 139
3 182 183 139
3 139 183 140
3 183 184 140
3 140 184 141
3 184 185 141
3 185 186 141
3 141 186 142
3 186 187 142
3 142 187 143
3 187 188 143
3 143 188 144
3 188 189 144
3 144 189 145
3 189 190 145
3 145 190 146
3 190 191 146
3 146 191 147
3 191 192 147
3 147 192 148
3 192 193 148
3 193 194 148
3 148 194 149
3 194 195 149
3 149 195 150
3 195 196 150
3 150 196 151
3 196 197 151
3 151 197 152
3 197 198 152
3 152 198 153
3 198 199 153
3 153 199 154
3 199 200 154
3 154 200 155
3 200 201 155
3 201 202 155
3 155 202 156
3 202 203 156
3 156 203 157
3 203 204 157
3 157 204 158
3 204 205 158
3 158 205 159
3 205 206 159
3 159 206 160
3 206 207 160
3 160 207 161
3 207 208 161
3 161 208 162
3 208 209 162
3 209 210 162
3 162 210 163
3 210 211 163
3 163 211 164
3 211 212 164
3 164 212 165
3 212 213 165
3 165 213 166
3 213 214 166
3 166 214 167
3 214 215 167
3 167 215 168
3 215 216 168
3 168 216 127
3 216 169 127
3 169 217 170
3 217 218 170
3 170 218 171
3 174 219 175
3 219 220 175
3 175 220 176
3 195 221 196
3 221 222 196
3 196 222 197
3 214 223 215
3 223 224 215
3 215 224 216

CELL_TYPES 396
5
5
5
5
5
5
5
5
5
5
5
5
5
5
5
5
5
5
5
5
5
5
5
5
5
5
5
5
5
5
5
5
5
5
5
5
5
5
5
5
5
5
5
5
5
5
5
5
5
5
5
5
5
5
5
5
5
5
5
5
5
5
5
5
5
5
5
5
5
5
5
5
5
5
5
5
5
5
5
5
5
5
5
5
5
5
5
5
5
5
5
5
5
5
5
5
5
5
5
5
5
5
5
5
5
5
5
5
5
5
5
5
5
5
5
5
5
5
5
5
5
5
5
5
5
5
5
5
5
5
5
5
5
5
5
5
5
5
5
5
5
5
5
5
5
5
5
5
5
5
5
5
5
5
5
5
5
5
5
5
5
5
5
5
5
5
5
5
5
5
5
5
5
5
5
5
5
5
5
5
5
5
5
5
5
5
5
5
5
5
5
5
5
5
5
5
5
5
5
5
5
5
5
5
5
5
5
5
5
5
5
5
5
5
5
5
5
5
5
5
5
5
5
5
5
5
5
5
5
5
5
5
5
5
5
5
5
5
5
5
5
5
5
5
5
5
5
5
5
5
5
5
5
5
5
5
5
5
5
5
5
5
5
5
5
5
5
5
5
5
5
5
5
5
5
5
5
5
5
5
5
5
5
5
5
5
5
5
5
5
5
5
5
5
5
5
5
5
5
5
5
5
5
5
5
5
5
5
5
5
5
5
5
5
5
5
5
5
5
5
5
5
5
5
5
5
5
5
5
5
5
5
5
5
5
5
5
5
5
5
5
5
5
5
5
5
5
5
5
5
5
5
5
5
5
5
5
5
5
5
5
5
5
5
5
5
5
5
5
5
5
5
5
5
5
5
5
5
5
5
5
5
5
5
5
5
5
5
5
5
5
5
5
5
5
5

POINT_DATA 225

SCALARS deformation double
LOOKUP_TABLE default 
0.00000000
0.00000000
0.00000000
0.00000000
0.00000000
0.00000000
0.00000000
0.00000000
0.00000000
0.00000000
0.00000000
0.00000000
0.00000000
0.00000000
0.00000000
0.00000000
0.00000000
0.00000000
0.00000000
0.00000000
0.00000000
0.00000000
0.00000000
0.00000000
0.00000000
0.00000000
0.00000000
0.00000000
0.00000000
0.00000000
0.00000000
0.00000000
0.00000000
0.00000000
0.00000000
0.00000000
0.00000000
0.00000000
0.00000000
0.00000000
0.00000000
0.00000000
0.00000000
0.00000000
0.00000000
0.00000000
0.00000000
0.00000000
0.00000000
0.00000000
0.00000000
0.00000000
0.00000000
0.00000000
0.00000000
0.00000000
0.00000000
0.00000000
0.00000000
0.00000000
0.00000000
0.00000000
0.00000000
0.00000000
0.00000000
0.00000000
0.00000000
0.00000000
0.00000000
0.00000000
0.00000000
0.00000000
0.00000000
0.00000000
0.00000000
0.00000000
0.00000000
0.00000000
0.00000000
0.00000000
0.00000000
0.00000000
0.00000000
0.00000000
0.00000000
0.00000000
0.00000000
0.00000000
0.00000000
0.00000000
0.00000000
0.00000000
0.00000000
0.00000000
0.00000000
0.00000000
0.00000000
0.00000000
0.00000000
0.00000000
0.00000000
0.00000000
0.00000000
0.00000000
0.00000000
0.00000000
0.00000000
0.00000000
0.00000000
0.00000000
0.00000000
0.00000000
0.00000000
0.00000000
0.00000000
0.00000000
0.00000000
0.00000000
0.00000000
0.00000000
0.00000000
0.00000000
0.00000000
0.00000000
0.00000000
0.00000000
0.00000000
0.00000000
0.00000000
0.00000000
0.00000000
0.00000000
0.00000000
0.00000000
0.00000000
0.00000000
0.00000000
0.00000000
0.00000000
0.00000000
0.00000000
0.00000000
0.00000000
0.00000000
0.00000000
0.00000000
0.00000000
0.00000000
0.00000000
0.00000000
0.00000000
0.00000000
0.00000000
0.00000000
0.00000000
0.00000000
0.00000000
0.00000000
0.00000000
0.00000000
0.00000000
0.00000000
0.00000000
0.00000000
0.00000000
0.00000000
0.00000000
0.00000000
0.00000000
0.00000000
0.00000000
0.00000000
0.00000000
0.00000000
0.00000000
0.00000000
0.00000000
0.00000000
0.00000000
0.00000000
0.00000000
0.00000000
0.00000000
0.00000000
0.00000000
0.00000000
0.00000000
0.00000000
0.00000000
0.00000000
0.00000000
0.00000000
0.00000000
0.00000000
0.00000000
0.00000000
0.00000000
0.00000000
0.00000000
0.00000000
0.00000000
0.00000000
0.00000000
0.00000000
0.00000000
0.00000000
0.00000000
0.00000000
0.00000000
0.00000000
0.00000000
0.00000000
0.00000000
0.00000000
0.00000000
0.00000000
0.00000000
0.00000000
0.00000000
0.00000000
0.00000000
0.00000000
0.00000000
0.00000000
0.00000000


SCALARS normal_stress double
LOOKUP_TABLE default 
0.00000000
0.00000000
0.00000000
0.00000000
0.00000000
0.00000000
0.00000000
0.00000000
0.00000000
0.00000000
0.00000000
0.00000000
0.00000000
0.00000000
0.00000000
0.00000000
0.00000000
0.00000000
0.00000000
0.00000000
0.00000000
0.00000000
0.00000000
0.00000000
0.00000000
0.00000000
0.00000000
0.00000000
0.00000000
0.00000000
0.00000000
0.00000000
0.00000000
0.00000000
0.00000000
0.00000000
0.00000000
0.00000000
0.00000000
0.00000000
0.00000000
0.00000000
0.00000000
0.00000000
0.00000000
0.00000000
0.00000000
0.00000000
0.00000000
0.00000000
0.00000000
0.00000000
0.00000000
0.00000000
0.00000000
0.00000000
0.00000000
0.00000000
0.00000000
0.00000000
0.00000000
0.00000000
0.00000000
0.00000000
0.00000000
0.00000000
0.00000000
0.00000000
0.00000000
0.00000000
0.00000000
0.00000000
0.00000000
0.00000000
0.00000000
0.00000000
0.00000000
0.00000000
0.00000000
0.00000000
0.00000000
0.00000000
0.00000000
0.00000000
0.00000000
0.00000000
0.00000000
0.00000000
0.00000000
0.00000000
0.00000000
0.00000000
0.00000000
0.00000000
0.00000000
0.00000000
0.00000000
0.00000000
0.00000000
0.00000000
0.00000000
0.00000000
0.00000000
0.00000000
0.00000000
0.00000000
0.00000000
0.00000000
0.00000000
0.00000000
0.00000000
0.00000000
0.00000000
0.00000000
0.00000000
0.00000000
0.00000000
0.00000000
0.00000000
0.00000000
0.00000000
0.00000000
0.00000000
0.00000000
0.00000000
0.00000000
0.00000000
0.00000000
0.00000000
0.00000000
0.00000000
0.00000000
0.00000000
0.00000000
0.00000000
0.00000000
0.00000000
0.00000000
0.00000000
0.00000000
0.00000000
0.00000000
0.00000000
0.00000000
0.00000000
0.00000000
0.00000000
0.00000000
0.00000000
0.00000000
0.00000000
0.00000000
0.00000000
0.00000000
0.00000000
0.00000000
0.00000000
0.00000000
0.00000000
0.00000000
0.00000000
0.00000000
0.00000000
0.00000000
0.00000000
0.00000000
0.00000000
0.00000000
0.00000000
0.00000000
0.00000000
0.00000000
0.00000000
0.00000000
0.00000000
0.00000000
0.00000000
0.00000000
0.00000000
0.00000000
0.00000000
0.00000000
0.00000000
0.00000000
0.00000000
0.00000000
0.00000000
0.00000000
0.00000000
0.00000000
0.00000000
0.00000000
0.00000000
0.00000000
0.00000000
0.00000000
0.00000000
0.00000000
0.00000000
0.00000000
0.00000000
0.00000000
0.00000000
0.00000000
0.00000000
0.00000000
0.00000000
0.00000000
0.00000000
0.00000000
0.00000000
0.00000000
0.00000000
0.00000000
0.00000000
0.00000000
0.00000000
0.00000000
0.00000000
0.00000000
0.00000000
0.00000000
0.00000000
0.00000000
0.00000000


VECTORS normals double
0.00000000 0.00000000 1.00000000
-0.02051133 0.00000000 0.99978962
-0.01025567 -0.01776334 0.99978962
0.01025567 -0.01776334 0.99978962
0.02051133 0.00000000 0.99978962
0.01025567 0.01776334 0.99978962
-0.01025567 0.01776334 0.99978962
-0.04005280 0.00000000 0.99919756
-0.03159240 -0.01823988 0.99933439
-0.02002640 -0.03468674 0.99919756
0.00000000 -0.03647976 0.99933439
0.02002640 -0.03468674 0.99919756
0.03159240 -0.01823988 0.99933439
0.04005280 0.00000000 0.99919756
0.03159240 0.01823988 0.99933439
0.02002640 0.03468674 0.99919756
0.00000000 0.03647976 0.99933439
-0.02002640 0.03468674 0.99919756
-0.03159240 0.01823988 0.99933439
-0.05936464 0.00000000 0.99823636
-0.05279369 -0.01900161 0.99842464
-0.04285273 -0.03621987 0.99842464
-0.02968232 -0.05141129 0.99823636
-0.00994097 -0.05522148 0.99842464
0.00994097 -0.05522148 0.99842464
0.02968232 -0.05141129 0.99823636
0.04285273 -0.03621987 0.99842464
0.05279369 -0.01900161 0.99842464
0.05936464 0.00000000 0.99823636
0.05279369 0.01900161 0.99842464
0.04285273 0.03621987 0.99842464
0.02968232 0.05141129 0.99823636
0.00994097 0.05522148 0.99842464
-0.00994097 0.05522148 0.99842464
-0.02968232 0.05141129 0.99823636
-0.04285273 0.03621987 0.99842464
-0.05279369 0.01900161 0.99842464
-0.07853925 0.00000000 0.99691102
-0.07283774 -0.01929103 0.99715722
-0.06530062 -0.03770133 0.99715317
-0.05312539 -0.05343383 0.99715722
-0.03926963 -0.06801699 0.99691102
-0.01971235 -0.07272485 0.99715722
0.00000000 -0.07540266 0.99715317
0.01971235 -0.07272485 0.99715722
0.03926963 -0.06801699 0.99691102
0.05312539 -0.05343383 0.99715722
0.06530062 -0.03770133 0.99715317
0.07283774 -0.01929103 0.99715722
0.07853925 0.00000000 0.99691102
0.07283774 0.01929103 0.99715722
0.06530062 0.03770133 0.99715317
0.05312539 0.05343383 0.99715722
0.03926963 0.06801699 0.99691102
0.01971235 0.07272485 0.99715722
0.00000000 0.07540266 0.99715317
-0.01971235 0.07272485 0.99715722
-0.03926963 0.06801699 0.99691102
-0.05312539 0.05343383 0.99715722
-0.06530062 0.03770133 0.99715317
-0.07283774 0.01929103 0.99715722
-0.09762505 0.00000000 0.99522327
-0.09243622 -0.01943687 0.99552888
-0.08636964 -0.03837869 0.99552366
-0.07642174 -0.05560897 0.99552366
-0.06305094 -0.07033368 0.99552888
-0.04881254 -0.08454578 0.99522326
-0.02938528 -0.08977055 0.99552888
-0.00994791 -0.09398764 0.99552366
0.00994791 -0.09398764 0.99552366
0.02938528 -0.08977055 0.99552888
0.04881254 -0.08454578 0.99522326
0.06305094 -0.07033368 0.99552888
0.07642174 -0.05560897 0.99552366
0.08636964 -0.03837869 0.99552366
0.09243622 -0.01943687 0.99552888
0.09762505 0.00000000 0.99522327
0.09243622 0.01943687 0.99552888
0.08636964 0.03837869 0.99552366
0.07642174 0.05560897 0.99552366
0.06305094 0.07033368 0.99552888
0.04881254 0.08454578 0.99522326
0.02938528 0.08977055 0.99552888
0.00994791 0.09398764 0.99552366
-0.00994791 0.09398764 0.99552366
-0.02938528 0.08977055 0.99552888
-0.04881254 0.08454578 0.99522326
-0.06305094 0.07033368 0.99552888
-0.07642174 0.05560897 0.99552366
-0.08636964 0.03837869 0.99552366
-0.09243622 0.01943687 0.99552888
-0.11664078 0.00000000 0.99317417
-0.11179454 -0.01951938 0.99353962
-0.10671908 -0.03874121 0.99353417
-0.09833661 -0.05677467 0.99353236
-0.08691040 -0.07305083 0.99353418
-0.07280154 -0.08705722 0.99353962
-0.05832039 -0.10101386 0.99317417
-0.03899300 -0.10657659 0.99353962
-0.01980868 -0.11179203 0.99353418
0.00000000 -0.11354933 0.99353236
0.01980868 -0.11179203 0.99353418
0.03899300 -0.10657659 0.99353962
0.05832039 -0.10101386 0.99317417
0.07280154 -0.08705722 0.99353962
0.08691040 -0.07305083 0.99353418
0.09833661 -0.05677467 0.99353236
0.10671908 -0.03874121 0.99353417
0.11179454 -0.01951938 0.99353962
0.11664078 0.00000000 0.99317417
0.11179454 0.01951938 0.99353962
0.10671908 0.03874121 0.99353417
0.09833661 0.05677467 0.99353236
0.08691040 0.07305083 0.99353418
0.07280154 0.08705722 0.99353962
0.05832039 0.10101386 0.99317417
0.03899300 0.10657659 0.99353962
0.01980868 0.11179203 0.99353418
0.00000000 0.11354933 0.99353236
-0.01980868 0.11179203 0.99353418
-0.03899300 0.10657659 0.99353962
-0.05832039 0.10101386 0.99317417
-0.07280154 0.08705722 0.99353962
-0.08691040 0.07305083 0.99353418
-0.09833661 0.05677467 0.99353236
-0.10671908 0.03874121 0.99353417
-0.11179454 0.01951938 0.99353962
-0.13559234 0.00000000 0.99076471
-0.13099372 -0.01956783 0.99119006
-0.12663188 -0.03895111 0.99118473
-0.11939985 -0.05746115 0.99118207
-0.10946274 -0.07467273 0.99118207
-0.09704860 -0.09019088 0.99118473
-0.08244309 -0.10365997 0.99119007
-0.06779617 -0.11742639 0.99076472
-0.04855062 -0.12322779 0.99119007
-0.02958328 -0.12914199 0.99118473
-0.00993713 -0.13213390 0.99118206
0.00993713 -0.13213390 0.99118206
0.02958328 -0.12914199 0.99118473
0.04855062 -0.12322779 0.99119007
0.06779617 -0.11742639 0.99076472
0.08244309 -0.10365997 0.99119007
0.09704860 -0.09019088 0.99118473
0.10946274 -0.07467273 0.99118207
0.11939985 -0.05746115 0.99118207
0.12663188 -0.03895111 0.99118473
0.13099372 -0.01956783 0.99119006
0.13559234 0.00000000 0.99076471
0.13099372 0.01956783 0.99119006
0.12663188 0.03895111 0.99118473
0.11939985 0.05746115 0.99118207
0.10946274 0.07467273 0.99118207
0.09704860 0.09019088 0.99118473
0.08244309 0.10365997 0.99119007
0.06779617 0.11742639 0.99076472
0.04855062 0.12322779 0.99119007
0.02958328 0.12914199 0.99118473
0.00993713 0.13213390 0.99118206
-0.00993713 0.13213390 0.99118206
-0.02958328 0.12914199 0.99118473
-0.04855062 0.12322779 0.99119007
-0.06779617 0.11742639 0.99076472
-0.08244309 0.10365997 0.99119007
-0.09704860 0.09019088 0.99118473
-0.10946274 0.07467273 0.99118207
-0.11939985 0.05746115 0.99118207
-0.12663188 0.03895111 0.99118473
-0.13099372 0.01956783 0.99119006
-0.15448008 0.00000000 0.98799590
-0.15007048 -0.01959542 0.98848109
-0.14624728 -0.03907602 0.98847600
-0.13989368 -0.05788789 0.98847294
-0.13111998 -0.07570216 0.98847192
-0.12007921 -0.09220756 0.98847294
-0.10696449 -0.10711585 0.98847600
-0.09200539 -0.12016713 0.98848109
-0.07724005 -0.13378366 0.98799590
-0.05806511 -0.13976255 0.98848109
-0.03928278 -0.14619186 0.98847600
-0.01981444 -0.15009543 0.98847294
0.00000000 -0.15140434 0.98847191
0.01981444 -0.15009543 0.98847294
0.03928278 -0.14619186 0.98847600
0.05806511 -0.13976255 0.98848109
0.07724005 -0.13378366 0.98799590
0.09200539 -0.12016713 0.98848109
0.10696449 -0.10711585 0.98847600
0.12007921 -0.09220756 0.98847294
0.13111998 -0.07570216 0.98847192
0.13989368 -0.05788789 0.98847294
0.14624728 -0.03907602 0.98847600
0.15007048 -0.01959542 0.98848109
0.15448008 0.00000000 0.98799590
0.15007048 0.01959542 0.98848109
0.14624728 0.03907602 0.98847600
0.13989368 0.05788789 0.98847294
0.13111998 0.07570216 0.98847192
0.12007921 0.09220756 0.98847294
0.10696449 0.10711585 0.98847600
0.09200539 0.12016713 0.98848109
0.07724005 0.13378366 0.98799590
0.05806511 0.13976255 0.98848109
0.03928278 0.14619186 0.98847600
0.01981444 0.15009543 0.98847294
0.00000000 0.15140434 0.98847191
-0.01981444 0.15009543 0.98847294
-0.03928278 0.14619186 0.98847600
-0.05806511 0.13976255 0.98848109
-0.07724005 0.13378366 0.98799590
-0.09200539 0.12016713 0.98848109
-0.10696449 0.10711585 0.98847600
-0.12007921 0.09220756 0.98847294
-0.13111998 0.07570216 0.98847192
-0.13989368 0.05788789 0.98847294
-0.14624728 0.03907602 0.98847600
-0.15007048 0.01959542 0.98848109
-0.16904247 -0.01960899 0.98541368
-0.16564043 -0.03914860 0.98540887
-0.13035708 -0.10946567 0.98540565
-0.11672390 -0.12387451 0.98540887
0.15997858 0.05815973 0.98540565
0.15213424 0.07638095 0.98540404
-0.15997858 0.05815973 0.98540565
-0.16564043 0.03914860 0.98540887


VECTORS u double
0.00000000 0.00000000 0.00000000
0.00000000 0.00000000 0.00000000
0.00000000 0.00000000 0.00000000
0.00000000 0.00000000 0.00000000
0.00000000 0.00000000 0.00000000
0.00000000 0.00000000 0.00000000
0.00000000 0.00000000 0.00000000
0.00000000 0.00000000 0.00000000
0.00000000 0.00000000 0.00000000
0.00000000 0.00000000 0.00000000
0.00000000 0.00000000 0.00000000
0.00000000 0.00000000 0.00000000
0.00000000 0.00000000 0.00000000
0.00000000 0.00000000 0.00000000
0.00000000 0.00000000 0.00000000
0.00000000 0.00000000 0.00000000
0.00000000 0.00000000 0.00000000
0.00000000 0.00000000 0.00000000
0.00000000 0.00000000 0.00000000
0.00000000 0.00000000 0.00000000
0.00000000 0.00000000 0.00000000
0.00000000 0.00000000 0.00000000
0.00000000 0.00000000 0.00000000
0.00000000 0.00000000 0.00000000
0.00000000 0.00000000 0.00000000
0.00000000 0.00000000 0.00000000
0.00000000 0.00000000 0.00000000
0.00000000 0.00000000 0.00000000
0.00000000 0.00000000 0.00000000
0.00000000 0.00000000 0.00000000
0.00000000 0.00000000 0.00000000
0.00000000 0.00000000 0.00000000
0.00000000 0.00000000 0.00000000
0.00000000 0.00000000 0.00000000
0.00000000 0.00000000 0.00000000
0.00000000 0.00000000 0.00000000
0.00000000 0.00000000 0.00000000
0.00000000 0.00000000 0.00000000
0.00000000 0.00000000 0.00000000
0.00000000 0.00000000 0.00000000
0.00000000 0.00000000 0.00000000
0.00000000 0.00000000 0.00000000
0.00000000 0.00000000 0.00000000
0.00000000 0.00000000 0.00000000
0.00000000 0.00000000 0.00000000
0.00000000 0.00000000 0.00000000
0.00000000 0.00000000 0.00000000
0.00000000 0.00000000 0.00000000
0.00000000 0.00000000 0.00000000
0.00000000 0.00000000 0.00000000
0.00000000 0.00000000 0.00000000
0.00000000 0.00000000 0.00000000
0.00000000 0.00000000 0.00000000
0.00000000 0.00000000 0.00000000
0.00000000 0.00000000 0.00000000
0.00000000 0.00000000 0.00000000
0.00000000 0.00000000 0.00000000
0.00000000 0.00000000 0.00000000
0.00000000 0.00000000 0.00000000
0.00000000 0.00000000 0.00000000
0.00000000 0.00000000 0.00000000
0.00000000 0.00000000 0.00000000
0.00000000 0.00000000 0.00000000
0.00000000 0.00000000 0.00000000
0.00000000 0.00000000 0.00000000
0.00000000 0.00000000 0.00000000
0.00000000 0.00000000 0.00000000
0.00000000 0.00000000 0.00000000
0.00000000 0.00000000 0.00000000
0.00000000 0.00000000 0.00000000
0.00000000 0.00000000 0.00000000
0.00000000 0.00000000 0.00000000
0.00000000 0.00000000 0.00000000
0.00000000 0.00000000 0.00000000
0.00000000 0.00000000 0.00000000
0.00000000 0.00000000 0.00000000
0.00000000 0.00000000 0.00000000
0.00000000 0.00000000 0.00000000
0.00000000 0.00000000 0.00000000
0.00000000 0.00000000 0.00000000
0.00000000 0.00000000 0.00000000
0.00000000 0.00000000 0.00000000
0.00000000 0.00000000 0.00000000
0.00000000 0.00000000 0.00000000
0.00000000 0.00000000 0.00000000
0.00000000 0.00000000 0.00000000
0.00000000 0.00000000 0.00000000
0.00000000 0.00000000 0.00000000
0.00000000 0.00000000 0.00000000
0.00000000 0.00000000 0.00000000
0.00000000 0.00000000 0.00000000
0.00000000 0.00000000 0.00000000
0.00000000 0.00000000 0.00000000
0.00000000 0.00000000 0.00000000
0.00000000 0.00000000 0.00000000
0.00000000 0.00000000 0.00000000
0.00000000 0.00000000 0.00000000
0.00000000 0.00000000 0.00000000
0.00000000 0.00000000 0.00000000
0.00000000 0.00000000 0.00000000
0.00000000 0.00000000 0.00000000
0.00000000 0.00000000 0.00000000
0.00000000 0.00000000 0.00000000
0.00000000 0.00000000 0.00000000
0.00000000 0.00000000 0.00000000
0.00000000 0.00000000 0.00000000
0.00000000 0.00000000 0.00000000
0.00000000 0.00000000 0.00000000
0.00000000 0.00000000 0.00000000
0.00000000 0.00000000 0.00000000
0.00000000 0.00000000 0.00000000
0.00000000 0.00000000 0.00000000
0.00000000 0.00000000 0.00000000
0.00000000 0.00000000 0.00000000
0.00000000 0.00000000 0.00000000
0.00000000 0.00000000 0.00000000
0.00000000 0.00000000 0.00000000
0.00000000 0.00000000 0.00000000
0.00000000 0.00000000 0.00000000
0.00000000 0.00000000 0.00000000
0.00000000 0.00000000 0.00000000
0.00000000 0.00000000 0.00000000
0.00000000 0.00000000 0.00000000
0.00000000 0.00000000 0.00000000
0.00000000 0.00000000 0.00000000
0.00000000 0.00000000 0.00000000
0.00000000 0.00000000 0.00000000
0.00000000 0.00000000 0.00000000
0.00000000 0.00000000 0.00000000
0.00000000 0.00000000 0.00000000
0.00000000 0.00000000 0.00000000
0.00000000 0.00000000 0.00000000
0.00000000 0.00000000 0.00000000
0.00000000 0.00000000 0.00000000
0.00000000 0.00000000 0.00000000
0.00000000 0.00000000 0.00000000
0.00000000 0.00000000 0.00000000
0.00000000 0.00000000 0.00000000
0.00000000 0.00000000 0.00000000
0.00000000 0.00000000 0.00000000
0.00000000 0.00000000 0.00000000
0.00000000 0.00000000 0.00000000
0.00000000 0.00000000 0.00000000
0.00000000 0.00000000 0.00000000
0.00000000 0.00000000 0.00000000
0.00000000 0.00000000 0.00000000
0.00000000 0.00000000 0.00000000
0.00000000 0.00000000 0.00000000
0.00000000 0.00000000 0.00000000
0.00000000 0.00000000 0.00000000
0.00000000 0.00000000 0.00000000
0.00000000 0.00000000 0.00000000
0.00000000 0.00000000 0.00000000
0.00000000 0.00000000 0.00000000
0.00000000 0.00000000 0.00000000
0.00000000 0.00000000 0.00000000
0.00000000 0.00000000 0.00000000
0.00000000 0.00000000 0.00000000
0.00000000 0.00000000 0.00000000
0.00000000 0.00000000 0.00000000
0.00000000 0.00000000 0.00000000
0.00000000 0.00000000 0.00000000
0.00000000 0.00000000 0.00000000
0.00000000 0.00000000 0.00000000
0.00000000 0.00000000 0.00000000
0.00000000 0.00000000 0.00000000
0.00000000 0.00000000 0.00000000
0.00000000 0.00000000 0.00000000
0.00000000 0.00000000 0.00000000
0.00000000 0.00000000 0.00000000
0.00000000 0.00000000 0.00000000
0.00000000 0.00000000 0.00000000
0.00000000 0.00000000 0.00000000
0.00000000 0.00000000 0.00000000
0.00000000 0.00000000 0.00000000
0.00000000 0.00000000 0.00000000
0.00000000 0.00000000 0.00000000
0.00000000 0.00000000 0.00000000
0.00000000 0.00000000 0.00000000
0.00000000 0.00000000 0.00000000
0.00000000 0.00000000 0.00000000
0.00000000 0.00000000 0.00000000
0.00000000 0.00000000 0.00000000
0.00000000 0.00000000 0.00000000
0.00000000 0.00000000 0.00000000
0.00000000 0.00000000 0.00000000
0.00000000 0.00000000 0.00000000
0.00000000 0.00000000 0.00000000
0.00000000 0.00000000 0.00000000
0.00000000 0.00000000 0.00000000
0.00000000 0.00000000 0.00000000
0.00000000 0.00000000 0.00000000
0.00000000 0.00000000 0.00000000
0.00000000 0.00000000 0.00000000
0.00000000 0.00000000 0.00000000
0.00000000 0.00000000 0.00000000
0.00000000 0.00000000 0.00000000
0.00000000 0.00000000 0.00000000
0.00000000 0.00000000 0.00000000
0.00000000 0.00000000 0.00000000
0.00000000 0.00000000 0.00000000
0.00000000 0.00000000 0.00000000
0.00000000 0.00000000 0.00000000
0.00000000 0.00000000 0.00000000
0.00000000 0.00000000 0.00000000
0.00000000 0.00000000 0.00000000
0.00000000 0.00000000 0.00000000
0.00000000 0.00000000 0.00000000
0.00000000 0.00000000 0.00000000
0.00000000 0.00000000 0.00000000
0.00000000 0.00000000 0.00000000
0.00000000 0.00000000 0.00000000
0.00000000 0.00000000 0.00000000
0.00000000 0.00000000 0.00000000
0.00000000 0.00000000 0.00000000
0.00000000 0.00000000 0.00000000
0.00000000 0.00000000 0.00000000
0.00000000 0.00000000 0.00000000
0.00000000 0.00000000 0.00000000
0.00000000 0.00000000 0.00000000
0.00000000 0.00000000 0.00000000
0.00000000 0.00000000 0.00000000
0.00000000 0.00000000 0.00000000
0.00000000 0.00000000 0.00000000
0.00000000 0.00000000 0.00000000

