# vtk DataFile Version 3.0
Visualize mesh data
ASCII

DATASET UNSTRUCTURED_GRID
POINTS 397 double
0.00000000 0.00000000 0.00000000
0.06250000 0.00000000 0.00000000
0.03125000 0.05412659 0.00000000
-0.03125000 0.05412659 0.00000000
-0.06250000 0.00000000 0.00000000
-0.03125000 -0.05412659 0.00000000
0.03125000 -0.05412659 0.00000000
0.12500000 0.00000000 0.00000000
0.10825318 0.06250000 0.00000000
0.06250000 0.10825318 0.00000000
0.00000000 0.12500000 0.00000000
-0.06250000 0.10825318 0.00000000
-0.10825318 0.06250000 0.00000000
-0.12500000 0.00000000 0.00000000
-0.10825318 -0.06250000 0.00000000
-0.06250000 -0.10825318 0.00000000
0.00000000 -0.12500000 0.00000000
0.06250000 -0.10825318 0.00000000
0.10825318 -0.06250000 0.00000000
0.18750000 0.00000000 0.00000000
0.17619237 0.06412878 0.00000000
0.14363334 0.12052268 0.00000000
0.09375000 0.16237976 0.00000000
0.03255903 0.18465145 0.00000000
-0.03255903 0.18465145 0.00000000
-0.09375000 0.16237976 0.00000000
-0.14363334 0.12052268 0.00000000
-0.17619237 0.06412878 0.00000000
-0.18750000 0.00000000 0.00000000
-0.17619237 -0.06412878 0.00000000
-0.14363334 -0.12052268 0.00000000
-0.09375000 -0.16237976 0.00000000
-0.03255903 -0.18465145 0.00000000
0.03255903 -0.18465145 0.00000000
0.09375000 -0.16237976 0.00000000
0.14363334 -0.12052268 0.00000000
0.17619237 -0.06412878 0.00000000
0.25000000 0.00000000 0.00000000
0.24148145 0.06470476 0.00000000
0.21650635 0.12500000 0.00000000
0.17677671 0.17677671 0.00000000
0.12500000 0.21650635 0.00000000
0.06470476 0.24148145 0.00000000
0.00000000 0.25000000 0.00000000
-0.06470476 0.24148145 0.00000000
-0.12500000 0.21650635 0.00000000
-0.17677671 0.17677671 0.00000000
-0.21650635 0.12500000 0.00000000
-0.24148145 0.06470476 0.00000000
-0.25000000 0.00000000 0.00000000
-0.24148145 -0.06470476 0.00000000
-0.21650635 -0.12500000 0.00000000
-0.17677671 -0.17677671 0.00000000
-0.12500000 -0.21650635 0.00000000
-0.06470476 -0.24148145 0.00000000
0.00000000 -0.25000000 0.00000000
0.06470476 -0.24148145 0.00000000
0.12500000 -0.21650635 0.00000000
0.17677671 -0.17677671 0.00000000
0.21650635 -0.12500000 0.00000000
0.24148145 -0.06470476 0.00000000
0.31250000 0.00000000 0.00000000
0.30567113 0.06497240 0.00000000
0.28548297 0.12710521 0.00000000
0.25281781 0.18368289 0.00000000
0.20910332 0.23223276 0.00000000
0.15625000 0.27063295 0.00000000
0.09656781 0.29720515 0.00000000
0.03266514 0.31078809 0.00000000
-0.03266514 0.31078809 0.00000000
-0.09656781 0.29720515 0.00000000
-0.15625000 0.27063295 0.00000000
-0.20910332 0.23223276 0.00000000
-0.25281781 0.18368289 0.00000000
-0.28548297 0.12710521 0.00000000
-0.30567113 0.06497240 0.00000000
-0.31250000 0.00000000 0.00000000
-0.30567113 -0.06497240 0.00000000
-0.28548297 -0.12710521 0.00000000
-0.25281781 -0.18368289 0.00000000
-0.20910332 -0.23223276 0.00000000
-0.15625000 -0.27063295 0.00000000
-0.09656781 -0.29720515 0.00000000
-0.03266514 -0.31078809 0.00000000
0.03266514 -0.31078809 0.00000000
0.09656781 -0.29720515 0.00000000
0.15625000 -0.27063295 0.00000000
0.20910332 -0.23223276 0.00000000
0.25281781 -0.18368289 0.00000000
0.28548297 -0.12710521 0.00000000
0.30567113 -0.06497240 0.00000000
0.37500000 0.00000000 0.00000000
0.36930290 0.06511807 0.00000000
0.35238472 0.12825754 0.00000000
0.32475954 0.18750000 0.00000000
0.28726667 0.24104536 0.00000000
0.24104536 0.28726667 0.00000000
0.18750000 0.32475954 0.00000000
0.12825754 0.35238472 0.00000000
0.06511807 0.36930290 0.00000000
0.00000000 0.37500000 0.00000000
-0.06511807 0.36930290 0.00000000
-0.12825754 0.35238472 0.00000000
-0.18750000 0.32475954 0.00000000
-0.24104536 0.28726667 0.00000000
-0.28726667 0.24104536 0.00000000
-0.32475954 0.18750000 0.00000000
-0.35238472 0.12825754 0.00000000
-0.36930290 0.06511807 0.00000000
-0.37500000 0.00000000 0.00000000
-0.36930290 -0.06511807 0.00000000
-0.35238472 -0.12825754 0.00000000
-0.32475954 -0.18750000 0.00000000
-0.28726667 -0.24104536 0.00000000
-0.24104536 -0.28726667 0.00000000
-0.18750000 -0.32475954 0.00000000
-0.12825754 -0.35238472 0.00000000
-0.06511807 -0.36930290 0.00000000
0.00000000 -0.37500000 0.00000000
0.06511807 -0.36930290 0.00000000
0.12825754 -0.35238472 0.00000000
0.18750000 -0.32475954 0.00000000
0.24104536 -0.28726667 0.00000000
0.28726667 -0.24104536 0.00000000
0.32475954 -0.18750000 0.00000000
0.35238472 -0.12825754 0.00000000
0.36930290 -0.06511807 0.00000000
0.43750000 0.00000000 0.00000000
0.43261349 0.06520599 0.00000000
0.41806310 0.12895539 0.00000000
0.39417389 0.18982413 0.00000000
0.36147946 0.24645253 0.00000000
0.32071018 0.29757556 0.00000000
0.27277678 0.34205127 0.00000000
0.21875000 0.37888610 0.00000000
0.15983669 0.40725726 0.00000000
0.09735291 0.42653096 0.00000000
0.03269442 0.43627667 0.00000000
-0.03269442 0.43627667 0.00000000
-0.09735291 0.42653096 0.00000000
-0.15983669 0.40725726 0.00000000
-0.21875000 0.37888610 0.00000000
-0.27277678 0.34205127 0.00000000
-0.32071018 0.29757556 0.00000000
-0.36147946 0.24645253 0.00000000
-0.39417389 0.18982413 0.00000000
-0.41806310 0.12895539 0.00000000
-0.43261349 0.06520599 0.00000000
-0.43750000 0.00000000 0.00000000
-0.43261349 -0.06520599 0.00000000
-0.41806310 -0.12895539 0.00000000
-0.39417389 -0.18982413 0.00000000
-0.36147946 -0.24645253 0.00000000
-0.32071018 -0.29757556 0.00000000
-0.27277678 -0.34205127 0.00000000
-0.21875000 -0.37888610 0.00000000
-0.15983669 -0.40725726 0.00000000
-0.09735291 -0.42653096 0.00000000
-0.03269442 -0.43627667 0.00000000
0.03269442 -0.43627667 0.00000000
0.09735291 -0.42653096 0.00000000
0.15983669 -0.40725726 0.00000000
0.21875000 -0.37888610 0.00000000
0.27277678 -0.34205127 0.00000000
0.32071018 -0.29757556 0.00000000
0.36147946 -0.24645253 0.00000000
0.39417389 -0.18982413 0.00000000
0.41806310 -0.12895539 0.00000000
0.43261349 -0.06520599 0.00000000
0.50000000 0.00000000 0.00000000
0.49572244 0.06526310 0.00000000
0.48296291 0.12940952 0.00000000
0.46193978 0.19134171 0.00000000
0.43301269 0.25000000 0.00000000
0.39667666 0.30438071 0.00000000
0.35355338 0.35355338 0.00000000
0.30438071 0.39667666 0.00000000
0.25000000 0.43301269 0.00000000
0.19134171 0.46193978 0.00000000
0.12940952 0.48296291 0.00000000
0.06526310 0.49572244 0.00000000
0.00000000 0.50000000 0.00000000
-0.06526310 0.49572244 0.00000000
-0.12940952 0.48296291 0.00000000
-0.19134171 0.46193978 0.00000000
-0.25000000 0.43301269 0.00000000
-0.30438071 0.39667666 0.00000000
-0.35355338 0.35355338 0.00000000
-0.39667666 0.30438071 0.00000000
-0.43301269 0.25000000 0.00000000
-0.46193978 0.19134171 0.00000000
-0.48296291 0.12940952 0.00000000
-0.49572244 0.06526310 0.00000000
-0.50000000 0.00000000 0.00000000
-0.49572244 -0.06526310 0.00000000
-0.48296291 -0.12940952 0.00000000
-0.46193978 -0.19134171 0.00000000
-0.43301269 -0.25000000 0.00000000
-0.39667666 -0.30438071 0.00000000
-0.35355338 -0.35355338 0.00000000
-0.30438071 -0.39667666 0.00000000
-0.25000000 -0.43301269 0.00000000
-0.19134171 -0.46193978 0.00000000
-0.12940952 -0.48296291 0.00000000
-0.06526310 -0.49572244 0.00000000
0.00000000 -0.50000000 0.00000000
0.06526310 -0.49572244 0.00000000
0.12940952 -0.48296291 0.00000000
0.19134171 -0.46193978 0.00000000
0.25000000 -0.43301269 0.00000000
0.30438071 -0.39667666 0.00000000
0.35355338 -0.35355338 0.00000000
0.39667666 -0.30438071 0.00000000
0.43301269 -0.25000000 0.00000000
0.46193978 -0.19134171 0.00000000
0.48296291 -0.12940952 0.00000000
0.49572244 -0.06526310 0.00000000
0.56250000 0.00000000 0.00000000
0.55869657 0.06530226 0.00000000
0.54733771 0.12972143 0.00000000
0.52857709 0.19238633 0.00000000
0.50266838 0.25244954 0.00000000
0.46996188 0.30909881 0.00000000
0.43090001 0.36156803 0.00000000
0.38601092 0.40914768 0.00000000
0.33590171 0.45119429 0.00000000
0.28125000 0.48713928 0.00000000
0.22279488 0.51649654 0.00000000
0.16132683 0.53886908 0.00000000
0.09767710 0.55395436 0.00000000
0.03270647 0.56154835 0.00000000
-0.03270647 0.56154835 0.00000000
-0.09767710 0.55395436 0.00000000
-0.16132683 0.53886908 0.00000000
-0.22279488 0.51649654 0.00000000
-0.28125000 0.48713928 0.00000000
-0.33590171 0.45119429 0.00000000
-0.38601092 0.40914768 0.00000000
-0.43090001 0.36156803 0.00000000
-0.46996188 0.30909881 0.00000000
-0.50266838 0.25244954 0.00000000
-0.52857709 0.19238633 0.00000000
-0.54733771 0.12972143 0.00000000
-0.55869657 0.06530226 0.00000000
-0.56250000 0.00000000 0.00000000
-0.55869657 -0.06530226 0.00000000
-0.54733771 -0.12972143 0.00000000
-0.52857709 -0.19238633 0.00000000
-0.50266838 -0.25244954 0.00000000
-0.46996188 -0.30909881 0.00000000
-0.43090001 -0.36156803 0.00000000
-0.38601092 -0.40914768 0.00000000
-0.33590171 -0.45119429 0.00000000
-0.28125000 -0.48713928 0.00000000
-0.22279488 -0.51649654 0.00000000
-0.16132683 -0.53886908 0.00000000
-0.09767710 -0.55395436 0.00000000
-0.03270647 -0.56154835 0.00000000
0.03270647 -0.56154835 0.00000000
0.09767710 -0.55395436 0.00000000
0.16132683 -0.53886908 0.00000000
0.22279488 -0.51649654 0.00000000
0.28125000 -0.48713928 0.00000000
0.33590171 -0.45119429 0.00000000
0.38601092 -0.40914768 0.00000000
0.43090001 -0.36156803 0.00000000
0.46996188 -0.30909881 0.00000000
0.50266838 -0.25244954 0.00000000
0.52857709 -0.19238633 0.00000000
0.54733771 -0.12972143 0.00000000
0.55869657 -0.06530226 0.00000000
0.62500000 0.00000000 0.00000000
0.62157619 0.06533029 0.00000000
0.61134225 0.12994482 0.00000000
0.59441030 0.19313562 0.00000000
0.57096589 0.25421041 0.00000000
0.54126590 0.31250000 0.00000000
0.50563562 0.36736578 0.00000000
0.46446553 0.41820663 0.00000000
0.41820663 0.46446553 0.00000000
0.36736578 0.50563562 0.00000000
0.31250000 0.54126590 0.00000000
0.25421041 0.57096589 0.00000000
0.19313562 0.59441030 0.00000000
0.12994482 0.61134225 0.00000000
0.06533029 0.62157619 0.00000000
0.00000000 0.62500000 0.00000000
-0.06533029 0.62157619 0.00000000
-0.12994482 0.61134225 0.00000000
-0.19313562 0.59441030 0.00000000
-0.25421041 0.57096589 0.00000000
-0.31250000 0.54126590 0.00000000
-0.36736578 0.50563562 0.00000000
-0.41820663 0.46446553 0.00000000
-0.46446553 0.41820663 0.00000000
-0.50563562 0.36736578 0.00000000
-0.54126590 0.31250000 0.00000000
-0.57096589 0.25421041 0.00000000
-0.59441030 0.19313562 0.00000000
-0.61134225 0.12994482 0.00000000
-0.62157619 0.06533029 0.00000000
-0.62500000 0.00000000 0.00000000
-0.62157619 -0.06533029 0.00000000
-0.61134225 -0.12994482 0.00000000
-0.59441030 -0.19313562 0.00000000
-0.57096589 -0.25421041 0.00000000
-0.54126590 -0.31250000 0.00000000
-0.50563562 -0.36736578 0.00000000
-0.46446553 -0.41820663 0.00000000
-0.41820663 -0.46446553 0.00000000
-0.36736578 -0.50563562 0.00000000
-0.31250000 -0.54126590 0.00000000
-0.25421041 -0.57096589 0.00000000
-0.19313562 -0.59441030 0.00000000
-0.12994482 -0.61134225 0.00000000
-0.06533029 -0.62157619 0.00000000
0.00000000 -0.62500000 0.00000000
0.06533029 -0.62157619 0.00000000
0.12994482 -0.61134225 0.00000000
0.19313562 -0.59441030 0.00000000
0.25421041 -0.57096589 0.00000000
0.31250000 -0.54126590 0.00000000
0.36736578 -0.50563562 0.00000000
0.41820663 -0.46446553 0.00000000
0.46446553 -0.41820663 0.00000000
0.50563562 -0.36736578 0.00000000
0.54126590 -0.31250000 0.00000000
0.57096589 -0.25421041 0.00000000
0.59441030 -0.19313562 0.00000000
0.61134225 -0.12994482 0.00000000
0.62157619 -0.06533029 0.00000000
0.68750000 0.00000000 0.00000000
0.68438697 0.06535103 0.00000000
0.67507601 0.13011023 0.00000000
0.65965140 0.19369113 0.00000000
0.63825297 0.25551793 0.00000000
0.61107439 0.31503072 0.00000000
0.57836181 0.37169057 0.00000000
0.54041147 0.42498431 0.00000000
0.49756715 0.47442931 0.00000000
0.45021674 0.51957780 0.00000000
0.39878914 0.56002098 0.00000000
0.34375000 0.59539247 0.00000000
0.28559783 0.62537199 0.00000000
0.22485922 0.64968807 0.00000000
0.16208427 0.66812044 0.00000000
0.09784145 0.68050224 0.00000000
0.03271257 0.68672132 0.00000000
-0.03271257 0.68672132 0.00000000
-0.09784145 0.68050224 0.00000000
-0.16208427 0.66812044 0.00000000
-0.22485922 0.64968807 0.00000000
-0.28559783 0.62537199 0.00000000
-0.34375000 0.59539247 0.00000000
-0.39878914 0.56002098 0.00000000
-0.45021674 0.51957780 0.00000000
-0.49756715 0.47442931 0.00000000
-0.54041147 0.42498431 0.00000000
-0.57836181 0.37169057 0.00000000
-0.61107439 0.31503072 0.00000000
-0.63825297 0.25551793 0.00000000
-0.65965140 0.19369113 0.00000000
-0.67507601 0.13011023 0.00000000
-0.68438697 0.06535103 0.00000000
-0.68750000 0.00000000 0.00000000
-0.68438697 -0.06535103 0.00000000
-0.67507601 -0.13011023 0.00000000
-0.65965140 -0.19369113 0.00000000
-0.63825297 -0.25551793 0.00000000
-0.61107439 -0.31503072 0.00000000
-0.57836181 -0.37169057 0.00000000
-0.54041147 -0.42498431 0.00000000
-0.49756715 -0.47442931 0.00000000
-0.45021674 -0.51957780 0.00000000
-0.39878914 -0.56002098 0.00000000
-0.34375000 -0.59539247 0.00000000
-0.28559783 -0.62537199 0.00000000
-0.22485922 -0.64968807 0.00000000
-0.16208427 -0.66812044 0.00000000
-0.09784145 -0.68050224 0.00000000
-0.03271257 -0.68672132 0.00000000
0.03271257 -0.68672132 0.00000000
0.09784145 -0.68050224 0.00000000
0.16208427 -0.66812044 0.00000000
0.22485922 -0.64968807 0.00000000
0.28559783 -0.62537199 0.00000000
0.34375000 -0.59539247 0.00000000
0.39878914 -0.56002098 0.00000000
0.45021674 -0.51957780 0.00000000
0.49756715 -0.47442931 0.00000000
0.54041147 -0.42498431 0.00000000
0.57836181 -0.37169057 0.00000000
0.61107439 -0.31503072 0.00000000
0.63825297 -0.25551793 0.00000000
0.65965140 -0.19369113 0.00000000
0.67507601 -0.13011023 0.00000000
0.68438697 -0.06535103 0.00000000

CELLS 726 2904
3 1 2 0
3 2 3 0
3 3 4 0
3 4 5 0
3 5 6 0
3 6 1 0
3 7 8 1
3 1 8 2
3 8 9 2
3 9 10 2
3 2 10 3
3 10 11 3
3 11 12 3
3 3 12 4
3 12 13 4
3 13 14 4
3 4 14 5
3 14 15 5
3 15 16 5
3 5 16 6
3 16 17 6
3 17 18 6
3 6 18 1
3 18 7 1
3 19 20 7
3 7 20 8
3 20 21 8
3 8 21 9
3 21 22 9
3 22 23 9
3 9 23 10
3 23 24 10
3 10 24 11
3 24 25 11
3 25 26 11
3 11 26 12
3 26 27 12
3 12 27 13
3 27 28 13
3 28 29 13
3 13 29 14
3 29 30 14
3 14 30 15
3 30 31 15
3 31 32 15
3 15 32 16
3 32 33 16
3 16 33 17
3 33 34 17
3 34 35 17
3 17 35 18
3 35 36 18
3 18 36 7
3 36 19 7
3 37 38 19
3 19 38 20
3 38 39 20
3 20 39 21
3 39 40 21
3 21 40 22
3 40 41 22
3 41 42 22
3 22 42 23
3 42 43 23
3 23 43 24
3 43 44 24
3 24 44 25
3 44 45 25
3 45 46 25
3 25 46 26
3 46 47 26
3 26 47 27
3 47 48 27
3 27 48 28
3 48 49 28
3 49 50 28
3 28 50 29
3 50 51 29
3 29 51 30
3 51 52 30
3 30 52 31
3 52 53 31
3 53 54 31
3 31 54 32
3 54 55 32
3 32 55 33
3 55 56 33
3 33 56 34
3 56 57 34
3 57 58 34
3 34 58 35
3 58 59 35
3 35 59 36
3 59 60 36
3 36 60 19
3 60 37 19
3 61 62 37
3 37 62 38
3 62 63 38
3 38 63 39
3 63 64 39
3 39 64 40
3 64 65 40
3 40 65 41
3 65 66 41
3 66 67 41
3 41 67 42
3 67 68 42
3 42 68 43
3 68 69 43
3 43 69 44
3 69 70 44
3 44 70 45
3 70 71 45
3 71 72 45
3 45 72 46
3 72 73 46
3 46 73 47
3 73 74 47
3 47 74 48
3 74 75 48
3 48 75 49
3 75 76 49
3 76 77 49
3 49 77 50
3 77 78 50
3 50 78 51
3 78 79 51
3 51 79 52
3 79 80 52
3 52 80 53
3 80 81 53
3 81 82 53
3 53 82 54
3 82 83 54
3 54 83 55
3 83 84 55
3 55 84 56
3 84 85 56
3 56 85 57
3 85 86 57
3 86 87 57
3 57 87 58
3 87 88 58
3 58 88 59
3 88 89 59
3 59 89 60
3 89 90 60
3 60 90 37
3 90 61 37
3 91 92 61
3 61 92 62
3 92 93 62
3 62 93 63
3 93 94 63
3 63 94 64
3 94 95 64
3 64 95 65
3 95 96 65
3 65 96 66
3 96 97 66
3 97 98 66
3 66 98 67
3 98 99 67
3 67 99 68
3 99 100 68
3 68 100 69
3 100 101 69
3 69 101 70
3 101 102 70
3 70 102 71
3 102 103 71
3 103 104 71
3 71 104 72
3 104 105 72
3 72 105 73
3 105 106 73
3 73 106 74
3 106 107 74
3 74 107 75
3 107 108 75
3 75 108 76
3 108 109 76
3 109 110 76
3 76 110 77
3 110 111 77
3 77 111 78
3 111 112 78
3 78 112 79
3 112 113 79
3 79 113 80
3 113 114 80
3 80 114 81
3 114 115 81
3 115 116 81
3 81 116 82
3 116 117 82
3 82 117 83
3 117 118 83
3 83 118 84
3 118 119 84
3 84 119 85
3 119 120 85
3 85 120 86
3 120 121 86
3 121 122 86
3 86 122 87
3 122 123 87
3 87 123 88
3 123 124 88
3 88 124 89
3 124 125 89
3 89 125 90
3 125 126 90
3 90 126 61
3 126 91 61
3 127 128 91
3 91 128 92
3 128 129 92
3 92 129 93
3 129 130 93
3 93 130 94
3 130 131 94
3 94 131 95
3 131 132 95
3 95 132 96
3 132 133 96
3 96 133 97
3 133 134 97
3 134 135 97
3 97 135 98
3 135 136 98
3 98 136 99
3 136 137 99
3 99 137 100
3 137 138 100
3 100 138 101
3 138 139 101
3 101 139 102
3 139 140 102
3 102 140 103
3 140 141 103
3 141 142 103
3 103 142 104
3 142 143 104
3 104 143 105
3 143 144 105
3 105 144 106
3 144 145 106
3 106 145 107
3 145 146 107
3 107 146 108
3 146 147 108
3 108 147 109
3 147 148 109
3 148 149 109
3 109 149 110
3 149 150 110
3 110 150 111
3 150 151 111
3 111 151 112
3 151 152 112
3 112 152 113
3 152 153 113
3 113 153 114
3 153 154 114
3 114 154 115
3 154 155 115
3 155 156 115
3 115 156 116
3 156 157 116
3 116 157 117
3 157 158 117
3 117 158 118
3 158 159 118
3 118 159 119
3 159 160 119
3 119 160 120
3 160 161 120
3 120 161 121
3 161 162 121
3 162 163 121
3 121 163 122
3 163 164 122
3 122 164 123
3 164 165 123
3 123 165 124
3 165 166 124
3 124 166 125
3 166 167 125
3 125 167 126
3 167 168 126
3 126 168 91
3 168 127 91
3 169 170 127
3 127 170 128
3 170 171 128
3 128 171 129
3 171 172 129
3 129 172 130
3 172 173 130
3 130 173 131
3 173 174 131
3 131 174 132
3 174 175 132
3 132 175 133
3 175 176 133
3 133 176 134
3 176 177 134
3 177 178 134
3 134 178 135
3 178 179 135
3 135 179 136
3 179 180 136
3 136 180 137
3 180 181 137
3 137 181 138
3 181 182 138
3 138 182 139
3 182 183 139
3 139 183 140
3 183 184 140
3 140 184 141
3 184 185 141
3 185 186 141
3 141 186 142
3 186 187 142
3 142 187 143
3 187 188 143
3 143 188 144
3 188 189 144
3 144 189 145
3 189 190 145
3 145 190 146
3 190 191 146
3 146 191 147
3 191 192 147
3 147 192 148
3 192 193 148
3 193 194 148
3 148 194 149
3 194 195 149
3 149 195 150
3 195 196 150
3 150 196 151
3 196 197 151
3 151 197 152
3 197 198 152
3 152 198 153
3 198 199 153
3 153 199 154
3 199 200 154
3 154 200 155
3 200 201 155
3 201 202 155
3 155 202 156
3 202 203 156
3 156 203 157
3 203 204 157
3 157 204 158
3 204 205 158
3 158 205 159
3 205 206 159
3 159 206 160
3 206 207 160
3 160 207 161
3 207 208 161
3 161 208 162
3 208 209 162
3 209 210 162
3 162 210 163
3 210 211 163
3 163 211 164
3 211 212 164
3 164 212 165
3 212 213 165
3 165 213 166
3 213 214 166
3 166 214 167
3 214 215 167
3 167 215 168
3 215 216 168
3 168 216 127
3 216 169 127
3 217 218 169
3 169 218 170
3 218 219 170
3 170 219 171
3 219 220 171
3 171 220 172
3 220 221 172
3 172 221 173
3 221 222 173
3 173 222 174
3 222 223 174
3 174 223 175
3 223 224 175
3 175 224 176
3 224 225 176
3 176 225 177
3 225 226 177
3 226 227 177
3 177 227 178
3 227 228 178
3 178 228 179
3 228 229 179
3 179 229 180
3 229 230 180
3 180 230 181
3 230 231 181
3 181 231 182
3 231 232 182
3 182 232 183
3 232 233 183
3 183 233 184
3 233 234 184
3 184 234 185
3 234 235 185
3 235 236 185
3 185 236 186
3 236 237 186
3 186 237 187
3 237 238 187
3 187 238 188
3 238 239 188
3 188 239 189
3 239 240 189
3 189 240 190
3 240 241 190
3 190 241 191
3 241 242 191
3 191 242 192
3 242 243 192
3 192 243 193
3 243 244 193
3 244 245 193
3 193 245 194
3 245 246 194
3 194 246 195
3 246 247 195
3 195 247 196
3 247 248 196
3 196 248 197
3 248 249 197
3 197 249 198
3 249 250 198
3 198 250 199
3 250 251 199
3 199 251 200
3 251 252 200
3 200 252 201
3 252 253 201
3 253 254 201
3 201 254 202
3 254 255 202
3 202 255 203
3 255 256 203
3 203 256 204
3 256 257 204
3 204 257 205
3 257 258 205
3 205 258 206
3 258 259 206
3 206 259 207
3 259 260 207
3 207 260 208
3 260 261 208
3 208 261 209
3 261 262 209
3 262 263 209
3 209 263 210
3 263 264 210
3 210 264 211
3 264 265 211
3 211 265 212
3 265 266 212
3 212 266 213
3 266 267 213
3 213 267 214
3 267 268 214
3 214 268 215
3 268 269 215
3 215 269 216
3 269 270 216
3 216 270 169
3 270 217 169
3 271 272 217
3 217 272 218
3 272 273 218
3 218 273 219
3 273 274 219
3 219 274 220
3 274 275 220
3 220 275 221
3 275 276 221
3 221 276 222
3 276 277 222
3 222 277 223
3 277 278 223
3 223 278 224
3 278 279 224
3 224 279 225
3 279 280 225
3 225 280 226
3 280 281 226
3 281 282 226
3 226 282 227
3 282 283 227
3 227 283 228
3 283 284 228
3 228 284 229
3 284 285 229
3 229 285 230
3 285 286 230
3 230 286 231
3 286 287 231
3 231 287 232
3 287 288 232
3 232 288 233
3 288 289 233
3 233 289 234
3 289 290 234
3 234 290 235
3 290 291 235
3 291 292 235
3 235 292 236
3 292 293 236
3 236 293 237
3 293 294 237
3 237 294 238
3 294 295 238
3 238 295 239
3 295 296 239
3 239 296 240
3 296 297 240
3 240 297 241
3 297 298 241
3 241 298 242
3 298 299 242
3 242 299 243
3 299 300 243
3 243 300 244
3 300 301 244
3 301 302 244
3 244 302 245
3 302 303 245
3 245 303 246
3 303 304 246
3 246 304 247
3 304 305 247
3 247 305 248
3 305 306 248
3 248 306 249
3 306 307 249
3 249 307 250
3 307 308 250
3 250 308 251
3 308 309 251
3 251 309 252
3 309 310 252
3 252 310 253
3 310 311 253
3 311 312 253
3 253 312 254
3 312 313 254
3 254 313 255
3 313 314 255
3 255 314 256
3 314 315 256
3 256 315 257
3 315 316 257
3 257 316 258
3 316 317 258
3 258 317 259
3 317 318 259
3 259 318 260
3 318 319 260
3 260 319 261
3 319 320 261
3 261 320 262
3 320 321 262
3 321 322 262
3 262 322 263
3 322 323 263
3 263 323 264
3 323 324 264
3 264 324 265
3 324 325 265
3 265 325 266
3 325 326 266
3 266 326 267
3 326 327 267
3 267 327 268
3 327 328 268
3 268 328 269
3 328 329 269
3 269 329 270
3 329 330 270
3 270 330 217
3 330 271 217
3 331 332 271
3 271 332 272
3 332 333 272
3 272 333 273
3 333 334 273
3 273 334 274
3 334 335 274
3 274 335 275
3 335 336 275
3 275 336 276
3 336 337 276
3 276 337 277
3 337 338 277
3 277 338 278
3 338 339 278
3 278 339 279
3 339 340 279
3 279 340 280
3 340 341 280
3 280 341 281
3 341 342 281
3 342 343 281
3 281 343 282
3 343 344 282
3 282 344 283
3 344 345 283
3 283 345 284
3 345 346 284
3 284 346 285
3 346 347 285
3 285 347 286
3 347 348 286
3 286 348 287
3 348 349 287
3 287 349 288
3 349 350 288
3 288 350 289
3 350 351 289
3 289 351 290
3 351 352 290
3 290 352 291
3 352 353 291
3 353 354 291
3 291 354 292
3 354 355 292
3 292 355 293
3 355 356 293
3 293 356 294
3 356 357 294
3 294 357 295
3 357 358 295
3 295 358 296
3 358 359 296
3 296 359 297
3 359 360 297
3 297 360 298
3 360 361 298
3 298 361 299
3 361 362 299
3 299 362 300
3 362 363 300
3 300 363 301
3 363 364 301
3 364 365 301
3 301 365 302
3 365 366 302
3 302 366 303
3 366 367 303
3 303 367 304
3 367 368 304
3 304 368 305
3 368 369 305
3 305 369 306
3 369 370 306
3 306 370 307
3 370 371 307
3 307 371 308
3 371 372 308
3 308 372 309
3 372 373 309
3 309 373 310
3 373 374 310
3 310 374 311
3 374 375 311
3 375 376 311
3 311 376 312
3 376 377 312
3 312 377 313
3 377 378 313
3 313 378 314
3 378 379 314
3 314 379 315
3 379 380 315
3 315 380 316
3 380 381 316
3 316 381 317
3 381 382 317
3 317 382 318
3 382 383 318
3 318 383 319
3 383 384 319
3 319 384 320
3 384 385 320
3 320 385 321
3 385 386 321
3 386 387 321
3 321 387 322
3 387 388 322
3 322 388 323
3 388 389 323
3 323 389 324
3 389 390 324
3 324 390 325
3 390 391 325
3 325 391 326
3 391 392 326
3 326 392 327
3 392 393 327
3 327 393 328
3 393 394 328
3 328 394 329
3 394 395 329
3 329 395 330
3 395 396 330
3 330 396 271
3 396 331 271

CELL_TYPES 726
5
5
5
5
5
5
5
5
5
5
5
5
5
5
5
5
5
5
5
5
5
5
5
5
5
5
5
5
5
5
5
5
5
5
5
5
5
5
5
5
5
5
5
5
5
5
5
5
5
5
5
5
5
5
5
5
5
5
5
5
5
5
5
5
5
5
5
5
5
5
5
5
5
5
5
5
5
5
5
5
5
5
5
5
5
5
5
5
5
5
5
5
5
5
5
5
5
5
5
5
5
5
5
5
5
5
5
5
5
5
5
5
5
5
5
5
5
5
5
5
5
5
5
5
5
5
5
5
5
5
5
5
5
5
5
5
5
5
5
5
5
5
5
5
5
5
5
5
5
5
5
5
5
5
5
5
5
5
5
5
5
5
5
5
5
5
5
5
5
5
5
5
5
5
5
5
5
5
5
5
5
5
5
5
5
5
5
5
5
5
5
5
5
5
5
5
5
5
5
5
5
5
5
5
5
5
5
5
5
5
5
5
5
5
5
5
5
5
5
5
5
5
5
5
5
5
5
5
5
5
5
5
5
5
5
5
5
5
5
5
5
5
5
5
5
5
5
5
5
5
5
5
5
5
5
5
5
5
5
5
5
5
5
5
5
5
5
5
5
5
5
5
5
5
5
5
5
5
5
5
5
5
5
5
5
5
5
5
5
5
5
5
5
5
5
5
5
5
5
5
5
5
5
5
5
5
5
5
5
5
5
5
5
5
5
5
5
5
5
5
5
5
5
5
5
5
5
5
5
5
5
5
5
5
5
5
5
5
5
5
5
5
5
5
5
5
5
5
5
5
5
5
5
5
5
5
5
5
5
5
5
5
5
5
5
5
5
5
5
5
5
5
5
5
5
5
5
5
5
5
5
5
5
5
5
5
5
5
5
5
5
5
5
5
5
5
5
5
5
5
5
5
5
5
5
5
5
5
5
5
5
5
5
5
5
5
5
5
5
5
5
5
5
5
5
5
5
5
5
5
5
5
5
5
5
5
5
5
5
5
5
5
5
5
5
5
5
5
5
5
5
5
5
5
5
5
5
5
5
5
5
5
5
5
5
5
5
5
5
5
5
5
5
5
5
5
5
5
5
5
5
5
5
5
5
5
5
5
5
5
5
5
5
5
5
5
5
5
5
5
5
5
5
5
5
5
5
5
5
5
5
5
5
5
5
5
5
5
5
5
5
5
5
5
5
5
5
5
5
5
5
5
5
5
5
5
5
5
5
5
5
5
5
5
5
5
5
5
5
5
5
5
5
5
5
5
5
5
5
5
5
5
5
5
5
5
5
5
5
5
5
5
5
5
5
5
5
5
5
5
5
5
5
5
5
5
5
5
5
5
5
5
5
5
5
5
5
5
5
5
5
5
5
5
5
5
5
5
5
5
5
5
5
5
5
5
5
5
5
5
5
5
5
5
5
5
5
5
5
5
5
5
5
5
5
5
5
5
5
5
5
5
5
5
5
5
5
5
5
5
5
5
5
5
5
5
5
5
5
5
5
5
5
5
5
5
5
5
5
5
5
5
5
5
5
5
5
5
5
5
5
5
5
5
5
5
5
5
5
5
5
5
5
5
5
5
5
5
5
5
5
5
5
5
5
5
5
5
5
5
5
5
5
5
5
5
5
5
5
5
5
5
5
5
5
5

POINT_DATA 397

SCALARS deformation double
LOOKUP_TABLE default 
-0.09945517
-0.09774189
-0.09756416
-0.09745908
-0.09749225
-0.09747573
-0.09757203
-0.09169265
-0.09167653
-0.09168360
-0.09172901
-0.09165804
-0.09205063
-0.09206737
-0.09163257
-0.09202885
-0.09161464
-0.09185540
-0.09175381
-0.08176293
-0.08201778
-0.08186607
-0.08212662
-0.08174022
-0.08203721
-0.08238926
-0.08220917
-0.08210702
-0.08204963
-0.08217795
-0.08233898
-0.08220770
-0.08171433
-0.08180550
-0.08244552
-0.08208378
-0.08236246
-0.06817368
-0.06771616
-0.06770924
-0.06778231
-0.06804965
-0.06789114
-0.06832041
-0.06774668
-0.06826042
-0.06783223
-0.06780898
-0.06789406
-0.06785024
-0.06828440
-0.06792444
-0.06771400
-0.06790775
-0.06867627
-0.06794036
-0.06801031
-0.06805645
-0.06778511
-0.06814545
-0.06811402
-0.04978448
-0.04957420
-0.04985852
-0.04961641
-0.05013874
-0.04945332
-0.04973911
-0.04970628
-0.04951465
-0.04961794
-0.04957960
-0.04968243
-0.04970254
-0.04984741
-0.04952975
-0.04962472
-0.04948369
-0.04952569
-0.04938516
-0.04949634
-0.04936680
-0.04961636
-0.04948387
-0.04953686
-0.04948158
-0.04949546
-0.04937871
-0.04946041
-0.04944703
-0.04954510
-0.02659225
-0.02656012
-0.02673141
-0.02657387
-0.02703029
-0.02689336
-0.02652946
-0.02663909
-0.02651636
-0.02658082
-0.02660365
-0.02654750
-0.02656668
-0.02662347
-0.02659952
-0.02660548
-0.02650562
-0.02668238
-0.02695984
-0.02655497
-0.02651057
-0.02705387
-0.02662579
-0.02660546
-0.02701396
-0.02651101
-0.02653353
-0.02695424
-0.02666558
-0.02653376
-0.02656308
-0.02659779
-0.02693258
-0.02649072
-0.02665912
-0.02673940
-0.00108433
-0.00108747
-0.00111626
-0.00120999
-0.00117594
-0.00124561
-0.00107168
-0.00113735
-0.00125996
-0.00121226
-0.00102144
-0.00102010
-0.00104137
-0.00119992
-0.00116082
-0.00125688
-0.00114937
-0.00126374
-0.00127771
-0.00114052
-0.00130698
-0.00129945
-0.00119927
-0.00121688
-0.00112305
-0.00120314
-0.00124998
-0.00127233
-0.00122819
-0.00113700
-0.00121350
-0.00105924
-0.00118064
-0.00109872
-0.00122567
-0.00117974
-0.00129097
-0.00113733
-0.00123860
-0.00105637
-0.00123217
-0.00104193
-0.00794063
-0.00794110
-0.00794219
-0.00796061
-0.00796853
-0.00797203
-0.00796591
-0.00795319
-0.00797358
-0.00799219
-0.00798133
-0.00793284
-0.00789947
-0.00790158
-0.00793345
-0.00797184
-0.00797972
-0.00799666
-0.00798530
-0.00799036
-0.00800924
-0.00799703
-0.00799684
-0.00802693
-0.00802514
-0.00800448
-0.00799222
-0.00796887
-0.00796222
-0.00798588
-0.00800603
-0.00800692
-0.00799009
-0.00797165
-0.00797147
-0.00794595
-0.00793574
-0.00794620
-0.00796013
-0.00798702
-0.00798888
-0.00800352
-0.00797525
-0.00796411
-0.00794889
-0.00794481
-0.00795037
-0.00792979
-0.01047856
-0.01047996
-0.01048252
-0.01048730
-0.01049243
-0.01049546
-0.01049665
-0.01049488
-0.01049380
-0.01049579
-0.01049715
-0.01049307
-0.01048241
-0.01047110
-0.01046653
-0.01047015
-0.01048008
-0.01049029
-0.01049756
-0.01050293
-0.01050529
-0.01050727
-0.01051136
-0.01051360
-0.01051402
-0.01051783
-0.01052253
-0.01052238
-0.01051751
-0.01051148
-0.01050594
-0.01050255
-0.01050459
-0.01050938
-0.01051261
-0.01051187
-0.01050733
-0.01050127
-0.01049612
-0.01049072
-0.01048579
-0.01048569
-0.01048810
-0.01049322
-0.01049846
-0.01050151
-0.01050269
-0.01049913
-0.01049341
-0.01048876
-0.01048417
-0.01048280
-0.01048043
-0.01047810
-0.01055539
-0.01055621
-0.01055770
-0.01055985
-0.01056228
-0.01056434
-0.01056563
-0.01056600
-0.01056566
-0.01056533
-0.01056521
-0.01056461
-0.01056249
-0.01055866
-0.01055431
-0.01055134
-0.01055103
-0.01055345
-0.01055766
-0.01056223
-0.01056626
-0.01056952
-0.01057193
-0.01057390
-0.01057592
-0.01057774
-0.01057910
-0.01058046
-0.01058216
-0.01058339
-0.01058318
-0.01058147
-0.01057900
-0.01057657
-0.01057484
-0.01057443
-0.01057525
-0.01057637
-0.01057678
-0.01057590
-0.01057377
-0.01057098
-0.01056807
-0.01056533
-0.01056302
-0.01056183
-0.01056195
-0.01056311
-0.01056495
-0.01056676
-0.01056792
-0.01056813
-0.01056700
-0.01056486
-0.01056246
-0.01056017
-0.01055838
-0.01055710
-0.01055596
-0.01055528
-0.01014355
-0.01014404
-0.01014488
-0.01014602
-0.01014731
-0.01014853
-0.01014950
-0.01015010
-0.01015029
-0.01015020
-0.01014996
-0.01014955
-0.01014890
-0.01014769
-0.01014594
-0.01014398
-0.01014239
-0.01014169
-0.01014216
-0.01014368
-0.01014591
-0.01014838
-0.01015073
-0.01015288
-0.01015470
-0.01015627
-0.01015769
-0.01015900
-0.01016014
-0.01016114
-0.01016208
-0.01016288
-0.01016332
-0.01016318
-0.01016244
-0.01016133
-0.01016014
-0.01015914
-0.01015855
-0.01015842
-0.01015857
-0.01015868
-0.01015845
-0.01015771
-0.01015645
-0.01015493
-0.01015327
-0.01015166
-0.01015028
-0.01014930
-0.01014886
-0.01014895
-0.01014945
-0.01015017
-0.01015085
-0.01015123
-0.01015124
-0.01015071
-0.01014973
-0.01014849
-0.01014721
-0.01014602
-0.01014505
-0.01014427
-0.01014371
-0.01014345


SCALARS normal_stress double
LOOKUP_TABLE default 
-0.21687803
-0.21953512
-0.21499721
-0.21223294
-0.21253450
-0.21296871
-0.21469281
-0.20306156
-0.20364334
-0.20435120
-0.20659523
-0.20021349
-0.21010380
-0.21151286
-0.19822294
-0.21236352
-0.20265949
-0.20684892
-0.20279557
-0.18212171
-0.19385450
-0.18758021
-0.19494980
-0.18201587
-0.18983958
-0.19790095
-0.19258106
-0.19005836
-0.18757335
-0.19043460
-0.19670209
-0.19160338
-0.17963254
-0.18444934
-0.19978134
-0.18781410
-0.19752632
-0.16741166
-0.15502353
-0.15624572
-0.15529125
-0.16262280
-0.15709084
-0.17119167
-0.15232123
-0.16720245
-0.15499812
-0.15604308
-0.15976537
-0.15741225
-0.16900749
-0.15929851
-0.15524200
-0.15755631
-0.17890760
-0.15970487
-0.16236497
-0.16234342
-0.15601487
-0.16511077
-0.16244720
-0.11759146
-0.11215541
-0.12159606
-0.11116434
-0.12581073
-0.10726647
-0.11820370
-0.11567268
-0.11113881
-0.11591342
-0.11202985
-0.11595260
-0.11625373
-0.12083472
-0.11179922
-0.11499851
-0.11108744
-0.11189914
-0.10914244
-0.11510016
-0.10823296
-0.11394906
-0.10877767
-0.11231003
-0.11204273
-0.11337532
-0.10991921
-0.11148158
-0.11081109
-0.11091894
-0.05141463
-0.05094276
-0.05428673
-0.04789787
-0.05889307
-0.05573732
-0.05034773
-0.05286473
-0.04917773
-0.05261837
-0.05329221
-0.05097540
-0.05160512
-0.05208071
-0.05082047
-0.05023773
-0.04832117
-0.05234415
-0.05945277
-0.05000386
-0.04862419
-0.06327129
-0.05099187
-0.05030308
-0.06334632
-0.04885427
-0.04991832
-0.06081413
-0.05281211
-0.05097734
-0.05191098
-0.05128160
-0.06083505
-0.04862756
-0.05396075
-0.05545904
0.24612657
0.24632381
0.24673939
0.24440047
0.24667953
0.24549288
0.24882450
0.24586376
0.24353841
0.24391080
0.24770309
0.24727233
0.24753568
0.24372807
0.24608089
0.24337465
0.24675102
0.24373623
0.24306697
0.24695471
0.24388868
0.24546992
0.24610728
0.24377298
0.24816337
0.24649865
0.24426442
0.24462591
0.24700188
0.24703012
0.24317574
0.24910827
0.24566948
0.24734198
0.24352156
0.24593962
0.24248171
0.24832790
0.24372705
0.24817005
0.24342672
0.24864516
0.00000000
0.00000000
0.00000000
0.00000000
0.00000000
0.00000000
0.00000000
0.00000000
0.00000000
0.00000000
0.00000000
0.00000000
0.00000000
0.00000000
0.00000000
0.00000000
0.00000000
0.00000000
0.00000000
0.00000000
0.00000000
0.00000000
0.00000000
0.00000000
0.00000000
0.00000000
0.00000000
0.00000000
0.00000000
0.00000000
0.00000000
0.00000000
0.00000000
0.00000000
0.00000000
0.00000000
0.00000000
0.00000000
0.00000000
0.00000000
0.00000000
0.00000000
0.00000000
0.00000000
0.00000000
0.00000000
0.00000000
0.00000000
0.00000000
0.00000000
0.00000000
0.00000000
0.00000000
0.00000000
0.00000000
0.00000000
0.00000000
0.00000000
0.00000000
0.00000000
0.00000000
0.00000000
0.00000000
0.00000000
0.00000000
0.00000000
0.00000000
0.00000000
0.00000000
0.00000000
0.00000000
0.00000000
0.00000000
0.00000000
0.00000000
0.00000000
0.00000000
0.00000000
0.00000000
0.00000000
0.00000000
0.00000000
0.00000000
0.00000000
0.00000000
0.00000000
0.00000000
0.00000000
0.00000000
0.00000000
0.00000000
0.00000000
0.00000000
0.00000000
0.00000000
0.00000000
0.00000000
0.00000000
0.00000000
0.00000000
0.00000000
0.00000000
0.00000000
0.00000000
0.00000000
0.00000000
0.00000000
0.00000000
0.00000000
0.00000000
0.00000000
0.00000000
0.00000000
0.00000000
0.00000000
0.00000000
0.00000000
0.00000000
0.00000000
0.00000000
0.00000000
0.00000000
0.00000000
0.00000000
0.00000000
0.00000000
0.00000000
0.00000000
0.00000000
0.00000000
0.00000000
0.00000000
0.00000000
0.00000000
0.00000000
0.00000000
0.00000000
0.00000000
0.00000000
0.00000000
0.00000000
0.00000000
0.00000000
0.00000000
0.00000000
0.00000000
0.00000000
0.00000000
0.00000000
0.00000000
0.00000000
0.00000000
0.00000000
0.00000000
0.00000000
0.00000000
0.00000000
0.00000000
0.00000000
0.00000000
0.00000000
0.00000000
0.00000000
0.00000000
0.00000000
0.00000000
0.00000000
0.00000000
0.00000000
0.00000000
0.00000000
0.00000000
0.00000000
0.00000000
0.00000000
0.00000000
0.00000000
0.00000000
0.00000000
0.00000000
0.00000000
0.00000000
0.00000000
0.00000000
0.00000000
0.00000000
0.00000000
0.00000000
0.00000000
0.00000000
0.00000000
0.00000000
0.00000000
0.00000000
0.00000000
0.00000000
0.00000000
0.00000000
0.00000000
0.00000000
0.00000000
0.00000000
0.00000000
0.00000000
0.00000000
0.00000000
0.00000000
0.00000000
0.00000000
0.00000000
0.00000000
0.00000000
0.00000000
0.00000000
0.00000000
0.00000000
0.00000000
0.00000000
0.00000000
0.00000000
0.00000000
0.00000000
0.00000000
0.00000000
0.00000000
0.00000000
0.00000000
0.00000000


VECTORS normals double
0.00000000 0.00000000 1.00000000
0.00000000 0.00000000 1.00000000
0.00000000 0.00000000 1.00000000
0.00000000 0.00000000 1.00000000
0.00000000 0.00000000 1.00000000
0.00000000 0.00000000 1.00000000
0.00000000 0.00000000 1.00000000
0.00000000 0.00000000 1.00000000
0.00000000 0.00000000 1.00000000
0.00000000 0.00000000 1.00000000
0.00000000 0.00000000 1.00000000
0.00000000 0.00000000 1.00000000
0.00000000 0.00000000 1.00000000
0.00000000 0.00000000 1.00000000
0.00000000 0.00000000 1.00000000
0.00000000 0.00000000 1.00000000
0.00000000 0.00000000 1.00000000
0.00000000 0.00000000 1.00000000
0.00000000 0.00000000 1.00000000
0.00000000 0.00000000 1.00000000
0.00000000 0.00000000 1.00000000
0.00000000 0.00000000 1.00000000
0.00000000 0.00000000 1.00000000
0.00000000 0.00000000 1.00000000
0.00000000 0.00000000 1.00000000
0.00000000 0.00000000 1.00000000
0.00000000 0.00000000 1.00000000
0.00000000 0.00000000 1.00000000
0.00000000 0.00000000 1.00000000
0.00000000 0.00000000 1.00000000
0.00000000 0.00000000 1.00000000
0.00000000 0.00000000 1.00000000
0.00000000 0.00000000 1.00000000
0.00000000 0.00000000 1.00000000
0.00000000 0.00000000 1.00000000
0.00000000 0.00000000 1.00000000
0.00000000 0.00000000 1.00000000
0.00000000 0.00000000 1.00000000
0.00000000 0.00000000 1.00000000
0.00000000 0.00000000 1.00000000
0.00000000 0.00000000 1.00000000
0.00000000 0.00000000 1.00000000
0.00000000 0.00000000 1.00000000
0.00000000 0.00000000 1.00000000
0.00000000 0.00000000 1.00000000
0.00000000 0.00000000 1.00000000
0.00000000 0.00000000 1.00000000
0.00000000 0.00000000 1.00000000
0.00000000 0.00000000 1.00000000
0.00000000 0.00000000 1.00000000
0.00000000 0.00000000 1.00000000
0.00000000 0.00000000 1.00000000
0.00000000 0.00000000 1.00000000
0.00000000 0.00000000 1.00000000
0.00000000 0.00000000 1.00000000
0.00000000 0.00000000 1.00000000
0.00000000 0.00000000 1.00000000
0.00000000 0.00000000 1.00000000
0.00000000 0.00000000 1.00000000
0.00000000 0.00000000 1.00000000
0.00000000 0.00000000 1.00000000
0.00000000 0.00000000 1.00000000
0.00000000 0.00000000 1.00000000
0.00000000 0.00000000 1.00000000
0.00000000 0.00000000 1.00000000
0.00000000 0.00000000 1.00000000
0.00000000 0.00000000 1.00000000
0.00000000 0.00000000 1.00000000
0.00000000 0.00000000 1.00000000
0.00000000 0.00000000 1.00000000
0.00000000 0.00000000 1.00000000
0.00000000 0.00000000 1.00000000
0.00000000 0.00000000 1.00000000
0.00000000 0.00000000 1.00000000
0.00000000 0.00000000 1.00000000
0.00000000 0.00000000 1.00000000
0.00000000 0.00000000 1.00000000
0.00000000 0.00000000 1.00000000
0.00000000 0.00000000 1.00000000
0.00000000 0.00000000 1.00000000
0.00000000 0.00000000 1.00000000
0.00000000 0.00000000 1.00000000
0.00000000 0.00000000 1.00000000
0.00000000 0.00000000 1.00000000
0.00000000 0.00000000 1.00000000
0.00000000 0.00000000 1.00000000
0.00000000 0.00000000 1.00000000
0.00000000 0.00000000 1.00000000
0.00000000 0.00000000 1.00000000
0.00000000 0.00000000 1.00000000
0.00000000 0.00000000 1.00000000
0.00000000 0.00000000 1.00000000
0.00000000 0.00000000 1.00000000
0.00000000 0.00000000 1.00000000
0.00000000 0.00000000 1.00000000
0.00000000 0.00000000 1.00000000
0.00000000 0.00000000 1.00000000
0.00000000 0.00000000 1.00000000
0.00000000 0.00000000 1.00000000
0.00000000 0.00000000 1.00000000
0.00000000 0.00000000 1.00000000
0.00000000 0.00000000 1.00000000
0.00000000 0.00000000 1.00000000
0.00000000 0.00000000 1.00000000
0.00000000 0.00000000 1.00000000
0.00000000 0.00000000 1.00000000
0.00000000 0.00000000 1.00000000
0.00000000 0.00000000 1.00000000
0.00000000 0.00000000 1.00000000
0.00000000 0.00000000 1.00000000
0.00000000 0.00000000 1.00000000
0.00000000 0.00000000 1.00000000
0.00000000 0.00000000 1.00000000
0.00000000 0.00000000 1.00000000
0.00000000 0.00000000 1.00000000
0.00000000 0.00000000 1.00000000
0.00000000 0.00000000 1.00000000
0.00000000 0.00000000 1.00000000
0.00000000 0.00000000 1.00000000
0.00000000 0.00000000 1.00000000
0.00000000 0.00000000 1.00000000
0.00000000 0.00000000 1.00000000
0.00000000 0.00000000 1.00000000
0.00000000 0.00000000 1.00000000
0.00000000 0.00000000 1.00000000
0.00000000 0.00000000 1.00000000
0.00000000 0.00000000 1.00000000
0.00000000 0.00000000 1.00000000
0.00000000 0.00000000 1.00000000
0.00000000 0.00000000 1.00000000
0.00000000 0.00000000 1.00000000
0.00000000 0.00000000 1.00000000
0.00000000 0.00000000 1.00000000
0.00000000 0.00000000 1.00000000
0.00000000 0.00000000 1.00000000
0.00000000 0.00000000 1.00000000
0.00000000 0.00000000 1.00000000
0.00000000 0.00000000 1.00000000
0.00000000 0.00000000 1.00000000
0.00000000 0.00000000 1.00000000
0.00000000 0.00000000 1.00000000
0.00000000 0.00000000 1.00000000
0.00000000 0.00000000 1.00000000
0.00000000 0.00000000 1.00000000
0.00000000 0.00000000 1.00000000
0.00000000 0.00000000 1.00000000
0.00000000 0.00000000 1.00000000
0.00000000 0.00000000 1.00000000
0.00000000 0.00000000 1.00000000
0.00000000 0.00000000 1.00000000
0.00000000 0.00000000 1.00000000
0.00000000 0.00000000 1.00000000
0.00000000 0.00000000 1.00000000
0.00000000 0.00000000 1.00000000
0.00000000 0.00000000 1.00000000
0.00000000 0.00000000 1.00000000
0.00000000 0.00000000 1.00000000
0.00000000 0.00000000 1.00000000
0.00000000 0.00000000 1.00000000
0.00000000 0.00000000 1.00000000
0.00000000 0.00000000 1.00000000
0.00000000 0.00000000 1.00000000
0.00000000 0.00000000 1.00000000
0.00000000 0.00000000 1.00000000
0.00000000 0.00000000 1.00000000
0.00000000 0.00000000 1.00000000
0.00000000 0.00000000 1.00000000
0.00000000 0.00000000 1.00000000
0.00000000 0.00000000 1.00000000
0.00000000 0.00000000 1.00000000
0.00000000 0.00000000 1.00000000
0.00000000 0.00000000 1.00000000
0.00000000 0.00000000 1.00000000
0.00000000 0.00000000 1.00000000
0.00000000 0.00000000 1.00000000
0.00000000 0.00000000 1.00000000
0.00000000 0.00000000 1.00000000
0.00000000 0.00000000 1.00000000
0.00000000 0.00000000 1.00000000
0.00000000 0.00000000 1.00000000
0.00000000 0.00000000 1.00000000
0.00000000 0.00000000 1.00000000
0.00000000 0.00000000 1.00000000
0.00000000 0.00000000 1.00000000
0.00000000 0.00000000 1.00000000
0.00000000 0.00000000 1.00000000
0.00000000 0.00000000 1.00000000
0.00000000 0.00000000 1.00000000
0.00000000 0.00000000 1.00000000
0.00000000 0.00000000 1.00000000
0.00000000 0.00000000 1.00000000
0.00000000 0.00000000 1.00000000
0.00000000 0.00000000 1.00000000
0.00000000 0.00000000 1.00000000
0.00000000 0.00000000 1.00000000
0.00000000 0.00000000 1.00000000
0.00000000 0.00000000 1.00000000
0.00000000 0.00000000 1.00000000
0.00000000 0.00000000 1.00000000
0.00000000 0.00000000 1.00000000
0.00000000 0.00000000 1.00000000
0.00000000 0.00000000 1.00000000
0.00000000 0.00000000 1.00000000
0.00000000 0.00000000 1.00000000
0.00000000 0.00000000 1.00000000
0.00000000 0.00000000 1.00000000
0.00000000 0.00000000 1.00000000
0.00000000 0.00000000 1.00000000
0.00000000 0.00000000 1.00000000
0.00000000 0.00000000 1.00000000
0.00000000 0.00000000 1.00000000
0.00000000 0.00000000 1.00000000
0.00000000 0.00000000 1.00000000
0.00000000 0.00000000 1.00000000
0.00000000 0.00000000 1.00000000
0.00000000 0.00000000 1.00000000
0.00000000 0.00000000 1.00000000
0.00000000 0.00000000 1.00000000
0.00000000 0.00000000 1.00000000
0.00000000 0.00000000 1.00000000
0.00000000 0.00000000 1.00000000
0.00000000 0.00000000 1.00000000
0.00000000 0.00000000 1.00000000
0.00000000 0.00000000 1.00000000
0.00000000 0.00000000 1.00000000
0.00000000 0.00000000 1.00000000
0.00000000 0.00000000 1.00000000
0.00000000 0.00000000 1.00000000
0.00000000 0.00000000 1.00000000
0.00000000 0.00000000 1.00000000
0.00000000 0.00000000 1.00000000
0.00000000 0.00000000 1.00000000
0.00000000 0.00000000 1.00000000
0.00000000 0.00000000 1.00000000
0.00000000 0.00000000 1.00000000
0.00000000 0.00000000 1.00000000
0.00000000 0.00000000 1.00000000
0.00000000 0.00000000 1.00000000
0.00000000 0.00000000 1.00000000
0.00000000 0.00000000 1.00000000
0.00000000 0.00000000 1.00000000
0.00000000 0.00000000 1.00000000
0.00000000 0.00000000 1.00000000
0.00000000 0.00000000 1.00000000
0.00000000 0.00000000 1.00000000
0.00000000 0.00000000 1.00000000
0.00000000 0.00000000 1.00000000
0.00000000 0.00000000 1.00000000
0.00000000 0.00000000 1.00000000
0.00000000 0.00000000 1.00000000
0.00000000 0.00000000 1.00000000
0.00000000 0.00000000 1.00000000
0.00000000 0.00000000 1.00000000
0.00000000 0.00000000 1.00000000
0.00000000 0.00000000 1.00000000
0.00000000 0.00000000 1.00000000
0.00000000 0.00000000 1.00000000
0.00000000 0.00000000 1.00000000
0.00000000 0.00000000 1.00000000
0.00000000 0.00000000 1.00000000
0.00000000 0.00000000 1.00000000
0.00000000 0.00000000 1.00000000
0.00000000 0.00000000 1.00000000
0.00000000 0.00000000 1.00000000
0.00000000 0.00000000 1.00000000
0.00000000 0.00000000 1.00000000
0.00000000 0.00000000 1.00000000
0.00000000 0.00000000 1.00000000
0.00000000 0.00000000 1.00000000
0.00000000 0.00000000 1.00000000
0.00000000 0.00000000 1.00000000
0.00000000 0.00000000 1.00000000
0.00000000 0.00000000 1.00000000
0.00000000 0.00000000 1.00000000
0.00000000 0.00000000 1.00000000
0.00000000 0.00000000 1.00000000
0.00000000 0.00000000 1.00000000
0.00000000 0.00000000 1.00000000
0.00000000 0.00000000 1.00000000
0.00000000 0.00000000 1.00000000
0.00000000 0.00000000 1.00000000
0.00000000 0.00000000 1.00000000
0.00000000 0.00000000 1.00000000
0.00000000 0.00000000 1.00000000
0.00000000 0.00000000 1.00000000
0.00000000 0.00000000 1.00000000
0.00000000 0.00000000 1.00000000
0.00000000 0.00000000 1.00000000
0.00000000 0.00000000 1.00000000
0.00000000 0.00000000 1.00000000
0.00000000 0.00000000 1.00000000
0.00000000 0.00000000 1.00000000
0.00000000 0.00000000 1.00000000
0.00000000 0.00000000 1.00000000
0.00000000 0.00000000 1.00000000
0.00000000 0.00000000 1.00000000
0.00000000 0.00000000 1.00000000
0.00000000 0.00000000 1.00000000
0.00000000 0.00000000 1.00000000
0.00000000 0.00000000 1.00000000
0.00000000 0.00000000 1.00000000
0.00000000 0.00000000 1.00000000
0.00000000 0.00000000 1.00000000
0.00000000 0.00000000 1.00000000
0.00000000 0.00000000 1.00000000
0.00000000 0.00000000 1.00000000
0.00000000 0.00000000 1.00000000
0.00000000 0.00000000 1.00000000
0.00000000 0.00000000 1.00000000
0.00000000 0.00000000 1.00000000
0.00000000 0.00000000 1.00000000
0.00000000 0.00000000 1.00000000
0.00000000 0.00000000 1.00000000
0.00000000 0.00000000 1.00000000
0.00000000 0.00000000 1.00000000
0.00000000 0.00000000 1.00000000
0.00000000 0.00000000 1.00000000
0.00000000 0.00000000 1.00000000
0.00000000 0.00000000 1.00000000
0.00000000 0.00000000 1.00000000
0.00000000 0.00000000 1.00000000
0.00000000 0.00000000 1.00000000
0.00000000 0.00000000 1.00000000
0.00000000 0.00000000 1.00000000
0.00000000 0.00000000 1.00000000
0.00000000 0.00000000 1.00000000
0.00000000 0.00000000 1.00000000
0.00000000 0.00000000 1.00000000
0.00000000 0.00000000 1.00000000
0.00000000 0.00000000 1.00000000
0.00000000 0.00000000 1.00000000
0.00000000 0.00000000 1.00000000
0.00000000 0.00000000 1.00000000
0.00000000 0.00000000 1.00000000
0.00000000 0.00000000 1.00000000
0.00000000 0.00000000 1.00000000
0.00000000 0.00000000 1.00000000
0.00000000 0.00000000 1.00000000
0.00000000 0.00000000 1.00000000
0.00000000 0.00000000 1.00000000
0.00000000 0.00000000 1.00000000
0.00000000 0.00000000 1.00000000
0.00000000 0.00000000 1.00000000
0.00000000 0.00000000 1.00000000
0.00000000 0.00000000 1.00000000
0.00000000 0.00000000 1.00000000
0.00000000 0.00000000 1.00000000
0.00000000 0.00000000 1.00000000
0.00000000 0.00000000 1.00000000
0.00000000 0.00000000 1.00000000
0.00000000 0.00000000 1.00000000
0.00000000 0.00000000 1.00000000
0.00000000 0.00000000 1.00000000
0.00000000 0.00000000 1.00000000
0.00000000 0.00000000 1.00000000
0.00000000 0.00000000 1.00000000
0.00000000 0.00000000 1.00000000
0.00000000 0.00000000 1.00000000
0.00000000 0.00000000 1.00000000
0.00000000 0.00000000 1.00000000
0.00000000 0.00000000 1.00000000
0.00000000 0.00000000 1.00000000
0.00000000 0.00000000 1.00000000
0.00000000 0.00000000 1.00000000
0.00000000 0.00000000 1.00000000
0.00000000 0.00000000 1.00000000
0.00000000 0.00000000 1.00000000
0.00000000 0.00000000 1.00000000
0.00000000 0.00000000 1.00000000
0.00000000 0.00000000 1.00000000
0.00000000 0.00000000 1.00000000
0.00000000 0.00000000 1.00000000
0.00000000 0.00000000 1.00000000
0.00000000 0.00000000 1.00000000
0.00000000 0.00000000 1.00000000
0.00000000 0.00000000 1.00000000
0.00000000 0.00000000 1.00000000
0.00000000 0.00000000 1.00000000
0.00000000 0.00000000 1.00000000
0.00000000 0.00000000 1.00000000
0.00000000 0.00000000 1.00000000
0.00000000 0.00000000 1.00000000
0.00000000 0.00000000 1.00000000
0.00000000 0.00000000 1.00000000
0.00000000 0.00000000 1.00000000
0.00000000 0.00000000 1.00000000
0.00000000 0.00000000 1.00000000
0.00000000 0.00000000 1.00000000
0.00000000 0.00000000 1.00000000
0.00000000 0.00000000 1.00000000
0.00000000 0.00000000 1.00000000
0.00000000 0.00000000 1.00000000
0.00000000 0.00000000 1.00000000
0.00000000 0.00000000 1.00000000
0.00000000 0.00000000 1.00000000
0.00000000 0.00000000 1.00000000
0.00000000 0.00000000 1.00000000


VECTORS u double
0.00000000 0.00000000 -0.09945517
0.00000000 0.00000000 -0.09774189
0.00000000 0.00000000 -0.09756416
0.00000000 0.00000000 -0.09745908
0.00000000 0.00000000 -0.09749225
0.00000000 0.00000000 -0.09747573
0.00000000 0.00000000 -0.09757203
0.00000000 0.00000000 -0.09169265
0.00000000 0.00000000 -0.09167653
0.00000000 0.00000000 -0.09168360
0.00000000 0.00000000 -0.09172901
0.00000000 0.00000000 -0.09165804
0.00000000 0.00000000 -0.09205063
0.00000000 0.00000000 -0.09206737
0.00000000 0.00000000 -0.09163257
0.00000000 0.00000000 -0.09202885
0.00000000 0.00000000 -0.09161464
0.00000000 0.00000000 -0.09185540
0.00000000 0.00000000 -0.09175381
0.00000000 0.00000000 -0.08176293
0.00000000 0.00000000 -0.08201778
0.00000000 0.00000000 -0.08186607
0.00000000 0.00000000 -0.08212662
0.00000000 0.00000000 -0.08174022
0.00000000 0.00000000 -0.08203721
0.00000000 0.00000000 -0.08238926
0.00000000 0.00000000 -0.08220917
0.00000000 0.00000000 -0.08210702
0.00000000 0.00000000 -0.08204963
0.00000000 0.00000000 -0.08217795
0.00000000 0.00000000 -0.08233898
0.00000000 0.00000000 -0.08220770
0.00000000 0.00000000 -0.08171433
0.00000000 0.00000000 -0.08180550
0.00000000 0.00000000 -0.08244552
0.00000000 0.00000000 -0.08208378
0.00000000 0.00000000 -0.08236246
0.00000000 0.00000000 -0.06817368
0.00000000 0.00000000 -0.06771616
0.00000000 0.00000000 -0.06770924
0.00000000 0.00000000 -0.06778231
0.00000000 0.00000000 -0.06804965
0.00000000 0.00000000 -0.06789114
0.00000000 0.00000000 -0.06832041
0.00000000 0.00000000 -0.06774668
0.00000000 0.00000000 -0.06826042
0.00000000 0.00000000 -0.06783223
0.00000000 0.00000000 -0.06780898
0.00000000 0.00000000 -0.06789406
0.00000000 0.00000000 -0.06785024
0.00000000 0.00000000 -0.06828440
0.00000000 0.00000000 -0.06792444
0.00000000 0.00000000 -0.06771400
0.00000000 0.00000000 -0.06790775
0.00000000 0.00000000 -0.06867627
0.00000000 0.00000000 -0.06794036
0.00000000 0.00000000 -0.06801031
0.00000000 0.00000000 -0.06805645
0.00000000 0.00000000 -0.06778511
0.00000000 0.00000000 -0.06814545
0.00000000 0.00000000 -0.06811402
0.00000000 0.00000000 -0.04978448
0.00000000 0.00000000 -0.04957420
0.00000000 0.00000000 -0.04985852
0.00000000 0.00000000 -0.04961641
0.00000000 0.00000000 -0.05013874
0.00000000 0.00000000 -0.04945332
0.00000000 0.00000000 -0.04973911
0.00000000 0.00000000 -0.04970628
0.00000000 0.00000000 -0.04951465
0.00000000 0.00000000 -0.04961794
0.00000000 0.00000000 -0.04957960
0.00000000 0.00000000 -0.04968243
0.00000000 0.00000000 -0.04970254
0.00000000 0.00000000 -0.04984741
0.00000000 0.00000000 -0.04952975
0.00000000 0.00000000 -0.04962472
0.00000000 0.00000000 -0.04948369
0.00000000 0.00000000 -0.04952569
0.00000000 0.00000000 -0.04938516
0.00000000 0.00000000 -0.04949634
0.00000000 0.00000000 -0.04936680
0.00000000 0.00000000 -0.04961636
0.00000000 0.00000000 -0.04948387
0.00000000 0.00000000 -0.04953686
0.00000000 0.00000000 -0.04948158
0.00000000 0.00000000 -0.04949546
0.00000000 0.00000000 -0.04937871
0.00000000 0.00000000 -0.04946041
0.00000000 0.00000000 -0.04944703
0.00000000 0.00000000 -0.04954510
0.00000000 0.00000000 -0.02659225
0.00000000 0.00000000 -0.02656012
0.00000000 0.00000000 -0.02673141
0.00000000 0.00000000 -0.02657387
0.00000000 0.00000000 -0.02703029
0.00000000 0.00000000 -0.02689336
0.00000000 0.00000000 -0.02652946
0.00000000 0.00000000 -0.02663909
0.00000000 0.00000000 -0.02651636
0.00000000 0.00000000 -0.02658082
0.00000000 0.00000000 -0.02660365
0.00000000 0.00000000 -0.02654750
0.00000000 0.00000000 -0.02656668
0.00000000 0.00000000 -0.02662347
0.00000000 0.00000000 -0.02659952
0.00000000 0.00000000 -0.02660548
0.00000000 0.00000000 -0.02650562
0.00000000 0.00000000 -0.02668238
0.00000000 0.00000000 -0.02695984
0.00000000 0.00000000 -0.02655497
0.00000000 0.00000000 -0.02651057
0.00000000 0.00000000 -0.02705387
0.00000000 0.00000000 -0.02662579
0.00000000 0.00000000 -0.02660546
0.00000000 0.00000000 -0.02701396
0.00000000 0.00000000 -0.02651101
0.00000000 0.00000000 -0.02653353
0.00000000 0.00000000 -0.02695424
0.00000000 0.00000000 -0.02666558
0.00000000 0.00000000 -0.02653376
0.00000000 0.00000000 -0.02656308
0.00000000 0.00000000 -0.02659779
0.00000000 0.00000000 -0.02693258
0.00000000 0.00000000 -0.02649072
0.00000000 0.00000000 -0.02665912
0.00000000 0.00000000 -0.02673940
0.00000000 0.00000000 -0.00108433
0.00000000 0.00000000 -0.00108747
0.00000000 0.00000000 -0.00111626
0.00000000 0.00000000 -0.00120999
0.00000000 0.00000000 -0.00117594
0.00000000 0.00000000 -0.00124561
0.00000000 0.00000000 -0.00107168
0.00000000 0.00000000 -0.00113735
0.00000000 0.00000000 -0.00125996
0.00000000 0.00000000 -0.00121226
0.00000000 0.00000000 -0.00102144
0.00000000 0.00000000 -0.00102010
0.00000000 0.00000000 -0.00104137
0.00000000 0.00000000 -0.00119992
0.00000000 0.00000000 -0.00116082
0.00000000 0.00000000 -0.00125688
0.00000000 0.00000000 -0.00114937
0.00000000 0.00000000 -0.00126374
0.00000000 0.00000000 -0.00127771
0.00000000 0.00000000 -0.00114052
0.00000000 0.00000000 -0.00130698
0.00000000 0.00000000 -0.00129945
0.00000000 0.00000000 -0.00119927
0.00000000 0.00000000 -0.00121688
0.00000000 0.00000000 -0.00112305
0.00000000 0.00000000 -0.00120314
0.00000000 0.00000000 -0.00124998
0.00000000 0.00000000 -0.00127233
0.00000000 0.00000000 -0.00122819
0.00000000 0.00000000 -0.00113700
0.00000000 0.00000000 -0.00121350
0.00000000 0.00000000 -0.00105924
0.00000000 0.00000000 -0.00118064
0.00000000 0.00000000 -0.00109872
0.00000000 0.00000000 -0.00122567
0.00000000 0.00000000 -0.00117974
0.00000000 0.00000000 -0.00129097
0.00000000 0.00000000 -0.00113733
0.00000000 0.00000000 -0.00123860
0.00000000 0.00000000 -0.00105637
0.00000000 0.00000000 -0.00123217
0.00000000 0.00000000 -0.00104193
0.00000000 0.00000000 -0.00794063
0.00000000 0.00000000 -0.00794110
0.00000000 0.00000000 -0.00794219
0.00000000 0.00000000 -0.00796061
0.00000000 0.00000000 -0.00796853
0.00000000 0.00000000 -0.00797203
0.00000000 0.00000000 -0.00796591
0.00000000 0.00000000 -0.00795319
0.00000000 0.00000000 -0.00797358
0.00000000 0.00000000 -0.00799219
0.00000000 0.00000000 -0.00798133
0.00000000 0.00000000 -0.00793284
0.00000000 0.00000000 -0.00789947
0.00000000 0.00000000 -0.00790158
0.00000000 0.00000000 -0.00793345
0.00000000 0.00000000 -0.00797184
0.00000000 0.00000000 -0.00797972
0.00000000 0.00000000 -0.00799666
0.00000000 0.00000000 -0.00798530
0.00000000 0.00000000 -0.00799036
0.00000000 0.00000000 -0.00800924
0.00000000 0.00000000 -0.00799703
0.00000000 0.00000000 -0.00799684
0.00000000 0.00000000 -0.00802693
0.00000000 0.00000000 -0.00802514
0.00000000 0.00000000 -0.00800448
0.00000000 0.00000000 -0.00799222
0.00000000 0.00000000 -0.00796887
0.00000000 0.00000000 -0.00796222
0.00000000 0.00000000 -0.00798588
0.00000000 0.00000000 -0.00800603
0.00000000 0.00000000 -0.00800692
0.00000000 0.00000000 -0.00799009
0.00000000 0.00000000 -0.00797165
0.00000000 0.00000000 -0.00797147
0.00000000 0.00000000 -0.00794595
0.00000000 0.00000000 -0.00793574
0.00000000 0.00000000 -0.00794620
0.00000000 0.00000000 -0.00796013
0.00000000 0.00000000 -0.00798702
0.00000000 0.00000000 -0.00798888
0.00000000 0.00000000 -0.00800352
0.00000000 0.00000000 -0.00797525
0.00000000 0.00000000 -0.00796411
0.00000000 0.00000000 -0.00794889
0.00000000 0.00000000 -0.00794481
0.00000000 0.00000000 -0.00795037
0.00000000 0.00000000 -0.00792979
0.00000000 0.00000000 -0.01047856
0.00000000 0.00000000 -0.01047996
0.00000000 0.00000000 -0.01048252
0.00000000 0.00000000 -0.01048730
0.00000000 0.00000000 -0.01049243
0.00000000 0.00000000 -0.01049546
0.00000000 0.00000000 -0.01049665
0.00000000 0.00000000 -0.01049488
0.00000000 0.00000000 -0.01049380
0.00000000 0.00000000 -0.01049579
0.00000000 0.00000000 -0.01049715
0.00000000 0.00000000 -0.01049307
0.00000000 0.00000000 -0.01048241
0.00000000 0.00000000 -0.01047110
0.00000000 0.00000000 -0.01046653
0.00000000 0.00000000 -0.01047015
0.00000000 0.00000000 -0.01048008
0.00000000 0.00000000 -0.01049029
0.00000000 0.00000000 -0.01049756
0.00000000 0.00000000 -0.01050293
0.00000000 0.00000000 -0.01050529
0.00000000 0.00000000 -0.01050727
0.00000000 0.00000000 -0.01051136
0.00000000 0.00000000 -0.01051360
0.00000000 0.00000000 -0.01051402
0.00000000 0.00000000 -0.01051783
0.00000000 0.00000000 -0.01052253
0.00000000 0.00000000 -0.01052238
0.00000000 0.00000000 -0.01051751
0.00000000 0.00000000 -0.01051148
0.00000000 0.00000000 -0.01050594
0.00000000 0.00000000 -0.01050255
0.00000000 0.00000000 -0.01050459
0.00000000 0.00000000 -0.01050938
0.00000000 0.00000000 -0.01051261
0.00000000 0.00000000 -0.01051187
0.00000000 0.00000000 -0.01050733
0.00000000 0.00000000 -0.01050127
0.00000000 0.00000000 -0.01049612
0.00000000 0.00000000 -0.01049072
0.00000000 0.00000000 -0.01048579
0.00000000 0.00000000 -0.01048569
0.00000000 0.00000000 -0.01048810
0.00000000 0.00000000 -0.01049322
0.00000000 0.00000000 -0.01049846
0.00000000 0.00000000 -0.01050151
0.00000000 0.00000000 -0.01050269
0.00000000 0.00000000 -0.01049913
0.00000000 0.00000000 -0.01049341
0.00000000 0.00000000 -0.01048876
0.00000000 0.00000000 -0.01048417
0.00000000 0.00000000 -0.01048280
0.00000000 0.00000000 -0.01048043
0.00000000 0.00000000 -0.01047810
0.00000000 0.00000000 -0.01055539
0.00000000 0.00000000 -0.01055621
0.00000000 0.00000000 -0.01055770
0.00000000 0.00000000 -0.01055985
0.00000000 0.00000000 -0.01056228
0.00000000 0.00000000 -0.01056434
0.00000000 0.00000000 -0.01056563
0.00000000 0.00000000 -0.01056600
0.00000000 0.00000000 -0.01056566
0.00000000 0.00000000 -0.01056533
0.00000000 0.00000000 -0.01056521
0.00000000 0.00000000 -0.01056461
0.00000000 0.00000000 -0.01056249
0.00000000 0.00000000 -0.01055866
0.00000000 0.00000000 -0.01055431
0.00000000 0.00000000 -0.01055134
0.00000000 0.00000000 -0.01055103
0.00000000 0.00000000 -0.01055345
0.00000000 0.00000000 -0.01055766
0.00000000 0.00000000 -0.01056223
0.00000000 0.00000000 -0.01056626
0.00000000 0.00000000 -0.01056952
0.00000000 0.00000000 -0.01057193
0.00000000 0.00000000 -0.01057390
0.00000000 0.00000000 -0.01057592
0.00000000 0.00000000 -0.01057774
0.00000000 0.00000000 -0.01057910
0.00000000 0.00000000 -0.01058046
0.00000000 0.00000000 -0.01058216
0.00000000 0.00000000 -0.01058339
0.00000000 0.00000000 -0.01058318
0.00000000 0.00000000 -0.01058147
0.00000000 0.00000000 -0.01057900
0.00000000 0.00000000 -0.01057657
0.00000000 0.00000000 -0.01057484
0.00000000 0.00000000 -0.01057443
0.00000000 0.00000000 -0.01057525
0.00000000 0.00000000 -0.01057637
0.00000000 0.00000000 -0.01057678
0.00000000 0.00000000 -0.01057590
0.00000000 0.00000000 -0.01057377
0.00000000 0.00000000 -0.01057098
0.00000000 0.00000000 -0.01056807
0.00000000 0.00000000 -0.01056533
0.00000000 0.00000000 -0.01056302
0.00000000 0.00000000 -0.01056183
0.00000000 0.00000000 -0.01056195
0.00000000 0.00000000 -0.01056311
0.00000000 0.00000000 -0.01056495
0.00000000 0.00000000 -0.01056676
0.00000000 0.00000000 -0.01056792
0.00000000 0.00000000 -0.01056813
0.00000000 0.00000000 -0.01056700
0.00000000 0.00000000 -0.01056486
0.00000000 0.00000000 -0.01056246
0.00000000 0.00000000 -0.01056017
0.00000000 0.00000000 -0.01055838
0.00000000 0.00000000 -0.01055710
0.00000000 0.00000000 -0.01055596
0.00000000 0.00000000 -0.01055528
0.00000000 0.00000000 -0.01014355
0.00000000 0.00000000 -0.01014404
0.00000000 0.00000000 -0.01014488
0.00000000 0.00000000 -0.01014602
0.00000000 0.00000000 -0.01014731
0.00000000 0.00000000 -0.01014853
0.00000000 0.00000000 -0.01014950
0.00000000 0.00000000 -0.01015010
0.00000000 0.00000000 -0.01015029
0.00000000 0.00000000 -0.01015020
0.00000000 0.00000000 -0.01014996
0.00000000 0.00000000 -0.01014955
0.00000000 0.00000000 -0.01014890
0.00000000 0.00000000 -0.01014769
0.00000000 0.00000000 -0.01014594
0.00000000 0.00000000 -0.01014398
0.00000000 0.00000000 -0.01014239
0.00000000 0.00000000 -0.01014169
0.00000000 0.00000000 -0.01014216
0.00000000 0.00000000 -0.01014368
0.00000000 0.00000000 -0.01014591
0.00000000 0.00000000 -0.01014838
0.00000000 0.00000000 -0.01015073
0.00000000 0.00000000 -0.01015288
0.00000000 0.00000000 -0.01015470
0.00000000 0.00000000 -0.01015627
0.00000000 0.00000000 -0.01015769
0.00000000 0.00000000 -0.01015900
0.00000000 0.00000000 -0.01016014
0.00000000 0.00000000 -0.01016114
0.00000000 0.00000000 -0.01016208
0.00000000 0.00000000 -0.01016288
0.00000000 0.00000000 -0.01016332
0.00000000 0.00000000 -0.01016318
0.00000000 0.00000000 -0.01016244
0.00000000 0.00000000 -0.01016133
0.00000000 0.00000000 -0.01016014
0.00000000 0.00000000 -0.01015914
0.00000000 0.00000000 -0.01015855
0.00000000 0.00000000 -0.01015842
0.00000000 0.00000000 -0.01015857
0.00000000 0.00000000 -0.01015868
0.00000000 0.00000000 -0.01015845
0.00000000 0.00000000 -0.01015771
0.00000000 0.00000000 -0.01015645
0.00000000 0.00000000 -0.01015493
0.00000000 0.00000000 -0.01015327
0.00000000 0.00000000 -0.01015166
0.00000000 0.00000000 -0.01015028
0.00000000 0.00000000 -0.01014930
0.00000000 0.00000000 -0.01014886
0.00000000 0.00000000 -0.01014895
0.00000000 0.00000000 -0.01014945
0.00000000 0.00000000 -0.01015017
0.00000000 0.00000000 -0.01015085
0.00000000 0.00000000 -0.01015123
0.00000000 0.00000000 -0.01015124
0.00000000 0.00000000 -0.01015071
0.00000000 0.00000000 -0.01014973
0.00000000 0.00000000 -0.01014849
0.00000000 0.00000000 -0.01014721
0.00000000 0.00000000 -0.01014602
0.00000000 0.00000000 -0.01014505
0.00000000 0.00000000 -0.01014427
0.00000000 0.00000000 -0.01014371
0.00000000 0.00000000 -0.01014345

