# vtk DataFile Version 3.0
Visualize mesh data
ASCII

DATASET UNSTRUCTURED_GRID
POINTS 617 double
-0.11795580 -0.09771498 -0.08819947
-0.15745522 -0.12819166 -0.07917044
-0.11163767 -0.15413713 -0.08172235
-0.07571985 -0.11932887 -0.08996317
-0.05410481 -0.16237579 -0.08524451
-0.02659194 -0.11454015 -0.09306267
-0.00340831 -0.16232641 -0.08673123
0.02493402 -0.11485425 -0.09306935
0.04966747 -0.16036369 -0.08580760
0.07915434 -0.11287158 -0.09045169
0.09960699 -0.16866422 -0.08062778
0.12645124 -0.13290428 -0.08302925
-0.12410147 -0.05187140 -0.09091280
-0.17087087 -0.07953703 -0.08207790
-0.06607884 -0.07123305 -0.09526852
-0.01027706 -0.06866707 -0.09758673
0.04326823 -0.06791855 -0.09675220
0.09520547 -0.06151810 -0.09355495
0.17790188 -0.12711956 -0.07580302
0.13577023 -0.08910631 -0.08672515
0.18889706 -0.07779508 -0.07891051
-0.12474106 0.00437273 -0.09217969
-0.16823354 -0.02487493 -0.08543328
-0.08478909 -0.02502015 -0.09608475
-0.03757132 -0.02257546 -0.09903893
0.01149550 -0.02051076 -0.09972355
0.06131442 -0.01828485 -0.09795097
0.11272201 -0.01212410 -0.09355257
0.15125115 -0.04209463 -0.08759866
-0.11417231 0.05644439 -0.09185622
-0.16487876 0.03156579 -0.08580861
-0.07357071 0.02443559 -0.09699062
-0.02484041 0.02754103 -0.09931198
0.02569426 0.02806844 -0.09927574
0.07620462 0.03054781 -0.09662417
0.12729733 0.03490276 -0.09125034
0.16805501 0.00684364 -0.08575383
-0.11284414 0.10682853 -0.08785317
-0.16032349 0.08310476 -0.08355985
-0.06160335 0.07531817 -0.09525481
-0.00783973 0.07488108 -0.09716163
0.04346856 0.07653306 -0.09611908
0.09291658 0.07920574 -0.09251848
0.14099066 0.08112304 -0.08668164
0.18082307 0.05587109 -0.08192739
-0.15448941 0.13474511 -0.07876287
-0.07294424 0.12647243 -0.08928452
-0.10618871 0.16590557 -0.08040771
-0.02623970 0.12199156 -0.09218422
0.02325717 0.12331120 -0.09209547
0.07344481 0.12528212 -0.08939896
0.17615059 0.11404884 -0.07773403
0.12417344 0.12700118 -0.08409939
-0.05156619 0.17182314 -0.08377728
-0.00016256 0.17009144 -0.08542827
0.05184752 0.17092796 -0.08391843
0.10468194 0.17124815 -0.07965086
-0.05356444 -0.34677693 -0.03641692
-0.10203924 -0.35820109 -0.02805171
-0.06740406 -0.39598915 -0.01577798
-0.00601709 -0.33642909 -0.04168955
-0.01941777 -0.38692835 -0.02190534
0.04727660 -0.33554503 -0.04083709
0.02397773 -0.37700501 -0.02590082
0.06983780 -0.38369131 -0.02081684
-0.17430460 -0.28770879 -0.04172263
-0.22479282 -0.30077806 -0.02682290
-0.18758763 -0.33643198 -0.02283499
-0.12238242 -0.27562380 -0.05344329
-0.13723035 -0.32353741 -0.03621117
-0.08573857 -0.30715016 -0.04779092
-0.03710362 -0.29540423 -0.05465159
0.01758229 -0.29353160 -0.05578766
0.09753682 -0.34068304 -0.03510514
0.07229855 -0.29419094 -0.05300817
0.12465582 -0.29766485 -0.04649702
0.14849578 -0.34345797 -0.02735410
0.17608462 -0.30009976 -0.03751496
0.19834721 -0.34815797 -0.01621196
0.22404175 -0.30583626 -0.02534828
-0.19993657 -0.20277373 -0.05859700
-0.26247281 -0.26331088 -0.02831862
-0.21396045 -0.25220433 -0.04372344
-0.16464806 -0.23877226 -0.05701557
-0.11716986 -0.22966912 -0.06619010
-0.06907799 -0.25368607 -0.06481687
-0.01170805 -0.25173879 -0.06772438
0.04393958 -0.25144315 -0.06687418
0.09990553 -0.25274634 -0.06236074
0.15489373 -0.25498092 -0.05445937
0.20925233 -0.25693503 -0.04350296
0.25782892 -0.26461211 -0.02924953
0.24544021 -0.21380004 -0.04554144
0.29709852 -0.23992434 -0.02421252
-0.28552708 -0.17510588 -0.04223785
-0.33406353 -0.18920425 -0.02336524
-0.29814374 -0.22582354 -0.02742336
-0.24938072 -0.21278532 -0.04473892
-0.19094951 -0.15521851 -0.06924996
-0.14760999 -0.18698537 -0.07120941
-0.08707722 -0.19903520 -0.07611606
-0.03539160 -0.20986034 -0.07709060
0.01911004 -0.20683733 -0.07818869
0.07268465 -0.20963532 -0.07507435
0.12941042 -0.21204814 -0.06865296
0.18793400 -0.21467172 -0.05843458
0.21115644 -0.17106093 -0.06236748
0.29541406 -0.19173858 -0.03593103
-0.26886013 -0.12330867 -0.05525348
-0.32002166 -0.13883100 -0.03718308
-0.23751947 -0.16126119 -0.05790362
-0.21547735 -0.10852288 -0.07045982
0.15770705 -0.17352600 -0.07211999
0.22627535 -0.11950065 -0.06670526
0.25893149 -0.15955383 -0.05262641
0.34314254 -0.16702627 -0.02431349
0.30557159 -0.13829768 -0.04207203
0.35025311 -0.11456328 -0.02962253
-0.34763822 -0.05488157 -0.03602121
-0.39578757 -0.06727126 -0.01587490
-0.35796183 -0.10397940 -0.02792869
-0.30822605 -0.08939748 -0.04710338
-0.25757024 -0.07367380 -0.06344680
-0.21311548 -0.05146363 -0.07567070
0.23818661 -0.06860544 -0.06879327
0.27441773 -0.10425967 -0.05594186
0.28913677 -0.05269224 -0.05583653
0.32348505 -0.08250561 -0.04262946
-0.33714426 -0.00637258 -0.04143140
-0.38680160 -0.01859403 -0.02197549
-0.29790056 -0.03959559 -0.05377535
-0.25303409 -0.01810203 -0.06728802
-0.20923410 0.00559397 -0.07784960
0.20381214 -0.02614895 -0.07866076
0.25182739 -0.01957293 -0.06757424
0.30788887 -0.00848628 -0.05138448
0.34662488 -0.03906916 -0.03718982
-0.33376759 0.04649897 -0.04150788
-0.37698728 0.02510488 -0.02587817
-0.29295790 0.01476798 -0.05601130
-0.24985179 0.03831500 -0.06752572
-0.20696069 0.06202949 -0.07638088
0.22050656 0.02801512 -0.07498310
0.26941073 0.02262771 -0.06275949
0.31094447 0.04565619 -0.04933087
0.35215643 0.01489328 -0.03582267
-0.38064289 0.07121394 -0.02197591
-0.29062921 0.06959196 -0.05430166
-0.33552244 0.09704881 -0.03701988
-0.24738613 0.09495337 -0.06425307
-0.20236377 0.11649707 -0.07235662
0.21772081 0.08807159 -0.07202933
0.26065287 0.06913476 -0.06295404
0.30217877 0.09658618 -0.04834542
0.34999570 0.07101224 -0.03405581
-0.29075789 0.12240602 -0.04893444
-0.33369398 0.14861809 -0.03089259
-0.24619295 0.14971568 -0.05758772
-0.20239009 0.16809006 -0.06477145
-0.15436766 0.18062122 -0.07136325
0.16000549 0.16457742 -0.07329980
0.21008211 0.14733739 -0.06651810
0.25509951 0.12271439 -0.05909613
0.29599854 0.14834481 -0.04359881
0.34336710 0.12316401 -0.03109059
-0.28709742 0.17516193 -0.04175017
-0.33456936 0.19842520 -0.02124414
-0.23972322 0.20706110 -0.04850332
-0.18654983 0.21754703 -0.05805663
-0.12823522 0.21863167 -0.06734476
-0.07807658 0.21426447 -0.07365022
-0.02395384 0.21668082 -0.07594857
0.02881334 0.21609378 -0.07594738
0.08257483 0.21530093 -0.07305030
0.13870732 0.20969605 -0.06787798
0.19571923 0.20110476 -0.05981812
0.24732091 0.17659536 -0.05270479
0.33938050 0.17398898 -0.02441803
0.29269731 0.19753106 -0.03557990
-0.29004160 0.22260413 -0.03076485
-0.20849109 0.25807345 -0.04336081
-0.25436923 0.25927609 -0.03170393
-0.15517808 0.26009926 -0.05303100
-0.10062797 0.26191676 -0.05982999
-0.04882487 0.26037407 -0.06427250
0.00449513 0.26135322 -0.06523279
0.05728585 0.26028430 -0.06383113
0.11067613 0.25631416 -0.06023637
0.16213264 0.25016728 -0.05453095
0.20795496 0.24968383 -0.04573396
0.28653705 0.24715850 -0.02563987
0.24597307 0.22558771 -0.04265980
-0.23047823 0.30534774 -0.02392778
-0.17990066 0.30353031 -0.03568432
-0.12703489 0.30381039 -0.04422525
-0.15110716 0.34756121 -0.02540145
-0.07204890 0.30560172 -0.04942957
-0.01928735 0.30525899 -0.05207405
0.03376273 0.30532366 -0.05164990
0.08726566 0.30226815 -0.04922006
0.13984828 0.29823846 -0.04419080
0.24196678 0.28390175 -0.02782104
0.19013596 0.29596999 -0.03608230
-0.09855109 0.34596872 -0.03305594
-0.04228593 0.34900236 -0.03616730
0.01020524 0.34945679 -0.03689692
0.06411365 0.34689626 -0.03570960
0.11721269 0.34402016 -0.03161756
0.16892648 0.34151211 -0.02457199
-0.04133811 -0.47670007 0.02190652
-0.09170785 -0.48852915 0.03228524
-0.05492707 -0.52008349 0.04765257
0.00717342 -0.46661970 0.01557102
-0.00691445 -0.51414973 0.04232743
0.05754495 -0.46485761 0.01648655
0.03592855 -0.50566524 0.03801867
0.10627985 -0.47188482 0.02476897
0.07921336 -0.51233619 0.04487612
0.12727895 -0.51538575 0.05254641
-0.16451973 -0.42037386 0.00768890
-0.21251155 -0.43262139 0.02382787
-0.17560831 -0.46746841 0.03360804
-0.11568310 -0.40756300 -0.00581995
-0.12712358 -0.45445889 0.01835003
-0.07701004 -0.44255939 0.00657364
-0.02551245 -0.43090290 -0.00203756
0.02865941 -0.42258593 -0.00586960
0.08420746 -0.42672342 -0.00045333
0.15604468 -0.47497791 0.03394803
0.13572830 -0.43137807 0.00809708
0.18668835 -0.43386489 0.01857575
0.20581520 -0.47518775 0.04452547
0.23883054 -0.43446296 0.03155198
-0.28530464 -0.36063680 0.01200094
-0.33263400 -0.37190190 0.03337231
-0.29613957 -0.40805131 0.03640547
-0.23703775 -0.34907621 -0.00661949
-0.24884281 -0.39701486 0.01656553
-0.20059891 -0.38482931 -0.00092534
-0.15150449 -0.37228760 -0.01566825
0.11950220 -0.38628426 -0.01460574
0.16874588 -0.38990068 -0.00526366
0.21898070 -0.39362949 0.00719359
0.27209499 -0.39277491 0.02153989
0.24845961 -0.35382330 -0.00170777
0.30324453 -0.34800246 0.01290526
0.31863350 -0.39826620 0.03985074
0.34917629 -0.36246952 0.03588673
-0.35838851 -0.28755811 0.01181760
-0.40497324 -0.29940829 0.03608372
-0.36891037 -0.33572775 0.03328665
-0.32188615 -0.32414106 0.01043727
-0.27381182 -0.31241477 -0.00962857
0.27000979 -0.31346634 -0.01040295
0.30653197 -0.29036772 -0.00649033
0.34653881 -0.31455252 0.01627632
-0.34651136 -0.23884819 -0.00712810
-0.39443162 -0.25093895 0.01600149
-0.31062841 -0.27558184 -0.00970582
0.34569094 -0.26310831 -0.00070629
0.39045209 -0.28227890 0.02372047
0.38892344 -0.23585670 0.00943270
0.43715042 -0.25571731 0.03773078
-0.41769269 -0.16633758 0.00676730
-0.46566045 -0.17620169 0.03275534
-0.43015522 -0.21394183 0.02296218
-0.38230965 -0.20258380 -0.00155375
0.34187675 -0.21576795 -0.01463900
0.38607347 -0.18757556 -0.00319580
0.43069923 -0.21236132 0.02284505
0.42536512 -0.16034906 0.00929650
0.46482286 -0.18512800 0.03416672
-0.40583366 -0.11713496 -0.00640962
-0.45202476 -0.12917311 0.01739707
-0.36953476 -0.15332302 -0.01648030
0.38652259 -0.13396858 -0.01249806
0.42418030 -0.10762053 0.00083991
0.46634042 -0.13588910 0.02589431
-0.47207355 -0.04188650 0.01943650
-0.51344776 -0.06127453 0.04406961
-0.48577082 -0.09476224 0.03106567
-0.44055280 -0.07808849 0.00567600
0.38127732 -0.07430336 -0.02146981
0.42594954 -0.05981955 -0.00276718
0.46869755 -0.08795480 0.02103099
-0.46619874 0.01054138 0.01538279
-0.50944155 -0.01124442 0.03956821
-0.42980966 -0.02338727 -0.00261656
0.39208341 -0.01568086 -0.01979599
0.43696517 -0.01522872 0.00065049
0.47520101 -0.04107045 0.02108177
-0.46356612 0.06148072 0.01607319
-0.50669092 0.03831407 0.03872397
-0.42190787 0.03131879 -0.00609759
0.39124593 0.04250447 -0.01930407
0.43230343 0.02922084 -0.00125459
0.47828612 0.01003788 0.02185329
-0.46381018 0.11408759 0.02144202
-0.50495476 0.08840420 0.04139336
-0.42287180 0.08731055 -0.00197355
-0.37928790 0.12085544 -0.01735196
0.38901916 0.09843950 -0.01595513
0.43134198 0.07914544 0.00128975
0.47448766 0.05873055 0.02169927
-0.50411063 0.13977420 0.04774674
-0.42215639 0.14093515 0.00449946
-0.46302807 0.16642664 0.02942135
-0.37881938 0.17067017 -0.00959746
0.38477248 0.15083906 -0.01060293
0.42896569 0.13037726 0.00613745
0.47218341 0.10892062 0.02525481
-0.42182916 0.19347447 0.01420780
-0.46076828 0.21937703 0.04001960
-0.37995869 0.22047514 0.00165590
0.33413091 0.22458339 -0.01537905
0.37999809 0.20244808 -0.00256095
0.42458332 0.18129078 0.01294723
0.46854612 0.15961425 0.03109964
-0.41963580 0.24683906 0.02651485
-0.33808464 0.24823239 -0.00778822
-0.37644246 0.27220851 0.01445296
-0.29995826 0.27080962 -0.01470605
0.28671086 0.29270419 -0.01220677
0.33122289 0.27330106 -0.00310460
0.37558159 0.25296751 0.00840261
0.46348399 0.21020745 0.03918906
0.41967079 0.23200084 0.02247390
-0.33274484 0.30530113 0.00777128
-0.37778783 0.31858796 0.03064504
-0.27854919 0.31034154 -0.00889961
-0.25292674 0.35208964 -0.00114427
-0.20263410 0.34868184 -0.01507399
0.22071885 0.33387572 -0.01641158
0.26716286 0.33392733 -0.00394497
0.31967232 0.32455724 0.00979092
0.41130549 0.28352448 0.03371962
0.36602211 0.30482802 0.02073457
-0.35239470 0.35492444 0.03406312
-0.30511573 0.35012794 0.01438447
-0.22476164 0.39338854 0.00852504
-0.27600801 0.39394888 0.02328804
-0.17394485 0.39121726 -0.00371025
-0.12185608 0.39034012 -0.01257089
-0.07057314 0.38604194 -0.01977769
-0.01327005 0.39330307 -0.01931313
0.04112214 0.39016196 -0.01982746
0.09460683 0.38807616 -0.01675866
0.14754386 0.38566855 -0.01076374
0.20028608 0.38081601 -0.00269852
0.24954028 0.37832263 0.00859567
0.35170504 0.35573089 0.03411367
0.30042589 0.36985061 0.02082154
-0.24835978 0.43535018 0.03467485
-0.14655726 0.43307221 0.01063540
-0.19726385 0.43456662 0.02122881
-0.09774056 0.43408495 0.00444593
-0.05491615 0.42525387 -0.00340650
-0.01736304 0.44339806 0.00384339
0.02547865 0.43316573 -0.00095413
0.07499765 0.43153238 0.00102546
0.12630419 0.42860681 0.00538083
0.17928074 0.42475319 0.01262006
0.28210232 0.41524965 0.03513815
0.23115048 0.42235038 0.02353575
-0.16481426 0.47403753 0.03505799
-0.11273514 0.47564906 0.02761891
-0.05929997 0.47444734 0.02171572
-0.00258089 0.48123398 0.02341160
0.04866261 0.47483543 0.02127179
0.10139764 0.47180706 0.02414807
0.15432864 0.46693620 0.02928003
0.20845276 0.46359515 0.03882232
-0.14683820 -0.54840159 0.07677814
-0.19708648 -0.55765486 0.09366384
-0.15746474 -0.58729374 0.10609134
-0.10446273 -0.53430909 0.06119057
-0.10473317 -0.58310866 0.09438517
-0.06562972 -0.56011677 0.07419016
-0.04439407 -0.59337288 0.09629747
-0.01427093 -0.55502880 0.06829127
0.01012702 -0.59050518 0.09302970
0.03802165 -0.54959583 0.06543502
0.06200376 -0.58958697 0.09467849
0.09163264 -0.55359882 0.07227316
0.11594127 -0.59176278 0.10226920
0.14440568 -0.55577749 0.08130690
0.17098828 -0.59306628 0.11321195
0.19511665 -0.55793911 0.09338149
-0.26980233 -0.48961207 0.07085183
-0.31603736 -0.49764794 0.09224572
-0.28117666 -0.53394127 0.10260024
-0.22226980 -0.47958261 0.05112036
-0.23372439 -0.52385920 0.08088800
-0.18536153 -0.51473075 0.06292572
-0.13974716 -0.50103027 0.04592779
0.17668852 -0.51700991 0.06245484
0.24031015 -0.55649918 0.10466375
0.22506948 -0.51645583 0.07379355
0.25454471 -0.47777086 0.05920156
0.27377373 -0.52114981 0.09163698
0.30007166 -0.48377728 0.07785859
-0.34322444 -0.41827753 0.05902382
-0.38950202 -0.42863777 0.08479580
-0.35425523 -0.46286312 0.08743557
-0.30698866 -0.45375320 0.06342008
-0.25964504 -0.44429991 0.04257240
0.28762493 -0.43848649 0.04852983
0.34334868 -0.48581710 0.09620061
0.33468485 -0.44440848 0.06904444
0.36520839 -0.41147727 0.06494954
0.38543510 -0.45446110 0.09694030
0.41370255 -0.40956128 0.08691343
-0.41487047 -0.34702000 0.05889382
-0.45965728 -0.35623583 0.08648219
-0.42454970 -0.39382586 0.08473393
-0.37924936 -0.38282344 0.05761286
0.39315715 -0.37304980 0.05960646
0.45839888 -0.39590457 0.10430529
0.43574673 -0.35643390 0.07351365
0.48472163 -0.35300681 0.09973058
-0.48567629 -0.27455789 0.07009848
-0.53107560 -0.28358978 0.10154178
-0.49562943 -0.32054320 0.09278038
-0.45049080 -0.31024328 0.06285777
0.39211640 -0.32973492 0.04121038
0.43212351 -0.30430460 0.05107834
0.47019684 -0.31682110 0.07626500
-0.47515208 -0.22590551 0.04959002
-0.51863575 -0.23826718 0.07887533
-0.44060209 -0.26270863 0.04159799
0.47849092 -0.27121490 0.06484201
0.51408511 -0.30147466 0.09698721
0.48410812 -0.22462367 0.05431476
0.52328587 -0.25354013 0.08643421
-0.54137790 -0.15123332 0.07293382
-0.57991803 -0.16987555 0.10323312
-0.55191594 -0.20299383 0.09118464
-0.50949401 -0.18909661 0.06056073
0.50433028 -0.17061102 0.05351146
0.53152853 -0.20497181 0.07813385
-0.53809011 -0.09973433 0.06303402
-0.57870650 -0.12106265 0.09349980
-0.50067353 -0.13806933 0.04544582
0.50864482 -0.11946125 0.04735150
0.54463291 -0.15072757 0.07498112
0.55029106 -0.09827199 0.07083031
0.58425719 -0.12771894 0.09854420
-0.54975116 -0.04238037 0.06574728
-0.58095771 -0.07261098 0.08931156
0.51353574 -0.06937299 0.04474070
0.55430728 -0.04561675 0.06893888
0.58951604 -0.07387813 0.09562888
-0.54847097 0.01000600 0.06389030
-0.58693999 -0.01840123 0.09057870
0.51717353 -0.01762740 0.04430094
0.55639493 0.00736785 0.06911471
0.59279448 -0.02040040 0.09490469
-0.54651523 0.06130384 0.06479766
-0.58631426 0.03378919 0.09062132
0.51776826 0.03477090 0.04518601
0.55594569 0.06002326 0.07095137
0.59392023 0.03283542 0.09614643
-0.54470062 0.11244988 0.06894269
-0.58464587 0.08528656 0.09320673
0.51469040 0.08536998 0.04688468
0.55293918 0.11144335 0.07426479
0.59281427 0.08537638 0.09919908
-0.54248923 0.16406703 0.07611444
-0.58232921 0.13661867 0.09860870
-0.50171942 0.19173889 0.05648723
0.51140165 0.13626838 0.05153122
0.58938575 0.13705033 0.10385826
0.54874504 0.16271479 0.07999828
-0.57917631 0.18789028 0.10674592
-0.49866813 0.24396288 0.06824752
-0.53895152 0.21565291 0.08573648
0.50669068 0.18718988 0.05843922
0.54253083 0.21399112 0.08767732
-0.45914593 0.27206945 0.05432680
-0.53360313 0.26789367 0.09781506
-0.41898420 0.29816473 0.04235789
0.45596579 0.26129487 0.04922380
0.49977612 0.23826607 0.06726166
0.53414404 0.26515940 0.09726676
-0.49424878 0.29768571 0.08323725
-0.45245311 0.32613268 0.06998577
-0.49263814 0.34751347 0.10216411
0.39936987 0.33468133 0.04648253
0.44569829 0.31214339 0.06100085
0.49059221 0.28923538 0.07801327
0.47931513 0.33950034 0.09068146
-0.40749285 0.35221311 0.05744704
-0.45240963 0.37384453 0.09032985
-0.37156275 0.39465660 0.05965050
-0.32297933 0.39638221 0.04060169
0.33296826 0.40277797 0.04741451
0.38431817 0.38414040 0.06051465
0.46613878 0.38845617 0.10513117
0.43300322 0.36174482 0.07437971
-0.41506028 0.39769053 0.08172914
-0.34438619 0.43848121 0.06986001
-0.39172953 0.43830329 0.09102645
-0.29722908 0.43896466 0.05208203
-0.26841894 0.47799817 0.06365737
0.26295599 0.45983252 0.05182066
0.31357008 0.44945824 0.06354251
0.41820082 0.40912783 0.08899906
0.36610305 0.43049777 0.07499077
-0.36028913 0.48001391 0.10013851
-0.31561548 0.48348677 0.08352747
-0.21824625 0.47540155 0.04773130
-0.28590444 0.52167332 0.09618684
-0.18659362 0.51195437 0.06149801
-0.13540655 0.51525849 0.05372950
-0.08321555 0.51526833 0.04702070
-0.03155512 0.51647562 0.04427972
0.02389989 0.51801282 0.04496112
0.07594709 0.51364148 0.04536297
0.12869962 0.50964248 0.04929384
0.18117277 0.50326246 0.05507203
0.23725238 0.49875671 0.06636157
0.34730038 0.47528061 0.09161224
0.29362729 0.49609131 0.08288535
-0.23969597 0.51605642 0.07766696
-0.20604049 0.54858845 0.08969262
-0.10758592 0.55462354 0.07488301
-0.15854786 0.55381531 0.08259484
-0.05613719 0.55549246 0.07037553
-0.00379884 0.55550921 0.06849828
0.04992208 0.55507576 0.06969967
0.10186445 0.55105352 0.07177081
0.15362082 0.54658711 0.07680913
0.12593980 0.58780986 0.10086372
0.20378762 0.53733569 0.08162298
0.25661615 0.53446245 0.09470626
-0.13737077 0.59091008 0.10504433
-0.08319569 0.59281325 0.09896889
-0.03016054 0.59354973 0.09576806
0.02250206 0.59297317 0.09509226
0.07526574 0.59157163 0.09726837
-0.21014753 -0.59819824 0.12669739
-0.12506464 -0.62164593 0.12675025
-0.07541905 -0.62250727 0.12102845
-0.01944525 -0.62747300 0.12160453
0.03298607 -0.62727731 0.12190291
0.08466327 -0.62714255 0.12571045
0.13733558 -0.62754041 0.13362416
-0.32597941 -0.54066914 0.12449094
-0.29030651 -0.57861930 0.13781770
-0.24574409 -0.56606293 0.11311843
0.22804771 -0.59539557 0.12961158
0.28199956 -0.56551433 0.12497112
0.31897515 -0.52900344 0.11360940
-0.40137574 -0.47278544 0.11554387
-0.36157537 -0.50526494 0.11643722
0.37365955 -0.50525314 0.12211969
0.41580275 -0.48913363 0.13328209
-0.46737742 -0.40222350 0.11274233
-0.43326136 -0.44096327 0.11397454
0.43504319 -0.44460800 0.11701777
-0.50224686 -0.36778763 0.11738875
0.50717348 -0.38628331 0.12957140
-0.53773975 -0.33037132 0.12431272
-0.57288849 -0.29504177 0.13531109
0.52892858 -0.33979177 0.12232646
0.55797851 -0.28555334 0.12082138
-0.60067433 -0.20829688 0.12811741
-0.56368661 -0.24554692 0.11135300
0.56614709 -0.23411496 0.10964080
-0.61548615 -0.15248930 0.12674465
0.57463884 -0.18226451 0.10214671
0.60753554 -0.20844693 0.13354685
0.61510462 -0.15605180 0.12715193
-0.61770427 -0.10093202 0.12009349
0.62242627 -0.10178518 0.12396827
-0.62028003 -0.04903093 0.11715349
0.62715614 -0.04805794 0.12259045
-0.62342858 0.00494910 0.11813536
0.62961322 0.00542656 0.12311026
-0.62286884 0.05756981 0.11979481
0.63012195 0.05824723 0.12569156
-0.62098849 0.10950144 0.12386676
0.62826526 0.11040784 0.12987479
-0.61805516 0.16099998 0.13052824
0.58400553 0.18846291 0.11043098
0.62403506 0.16193762 0.13556787
-0.57403564 0.23885113 0.11678025
0.57643747 0.23970860 0.11880883
-0.56835771 0.28926903 0.12974491
0.56682694 0.29073614 0.12916949
-0.53186518 0.31970215 0.11583802
-0.52887052 0.36970827 0.13605514
0.52378070 0.31597030 0.10891434
-0.48741272 0.39780024 0.12270739
0.51160628 0.36609551 0.12267568
-0.44468769 0.42724618 0.11278113
0.40131471 0.45304784 0.10395088
0.45139611 0.43556401 0.12120249
-0.41159904 0.47198907 0.12037667
-0.38521656 0.51005238 0.13093903
-0.33632055 0.52644777 0.11914071
0.33602983 0.51825720 0.11355647
0.38690108 0.49401250 0.12137350
-0.29375717 0.56021726 0.12549158
-0.24698243 0.56229562 0.11080840
-0.19416352 0.58754367 0.11444732
0.17484671 0.58352625 0.10695162
0.21792379 0.57235348 0.10948076
0.25626442 0.57925314 0.12618192
0.29958928 0.54357946 0.11592879
-0.15720882 0.62468016 0.13510784
-0.10559647 0.62808949 0.12905707
-0.05389879 0.63001859 0.12529262
-0.00188340 0.63010836 0.12349507
0.05065834 0.62867612 0.12398454
0.10419041 0.62659031 0.12764719
0.15693226 0.62212026 0.13296762

CELLS 1150 4600
3 1 0 2
3 2 0 3
3 2 3 4
3 4 3 5
3 4 5 6
3 6 5 7
3 6 7 8
3 8 9 10
3 7 9 8
3 10 9 11
3 12 0 13
3 0 1 13
3 3 0 14
3 0 12 14
3 5 14 15
3 3 14 5
3 7 5 15
3 7 15 16
3 9 7 16
3 9 16 17
3 11 19 18
3 9 19 11
3 9 17 19
3 18 19 20
3 21 12 22
3 12 13 22
3 14 12 23
3 12 21 23
3 15 14 24
3 14 23 24
3 16 15 25
3 15 24 25
3 17 16 26
3 16 25 26
3 19 17 28
3 17 26 27
3 20 19 28
3 17 27 28
3 29 21 30
3 21 22 30
3 23 21 31
3 21 29 31
3 24 23 31
3 24 31 32
3 25 32 33
3 24 32 25
3 26 25 33
3 26 33 34
3 27 34 35
3 26 34 27
3 28 27 36
3 27 35 36
3 37 29 38
3 29 30 38
3 31 29 39
3 29 37 39
3 32 31 39
3 32 39 40
3 33 32 40
3 33 40 41
3 34 41 42
3 33 41 34
3 35 42 43
3 34 42 35
3 35 43 44
3 35 44 36
3 45 37 38
3 39 37 46
3 37 47 46
3 37 45 47
3 40 39 48
3 39 46 48
3 41 40 49
3 40 48 49
3 42 41 50
3 41 49 50
3 43 52 51
3 42 52 43
3 42 50 52
3 44 43 51
3 53 46 47
3 48 46 53
3 48 53 54
3 49 48 54
3 49 54 55
3 50 55 56
3 49 55 50
3 52 50 56
3 58 57 59
3 59 57 61
3 57 60 61
3 61 60 63
3 60 62 63
3 63 62 64
3 66 65 67
3 67 65 69
3 65 68 69
3 69 68 70
3 69 70 58
3 58 70 57
3 60 57 71
3 57 70 71
3 60 71 72
3 60 72 62
3 64 62 73
3 62 74 73
3 62 72 74
3 73 75 76
3 74 75 73
3 76 77 78
3 75 77 76
3 78 77 79
3 97 80 82
3 82 80 83
3 82 65 66
3 82 83 65
3 68 83 84
3 65 83 68
3 70 68 85
3 68 84 85
3 71 70 85
3 71 85 86
3 72 71 86
3 72 86 87
3 74 72 87
3 74 87 88
3 75 88 89
3 74 88 75
3 77 89 90
3 75 89 77
3 79 77 90
3 79 90 91
3 91 90 92
3 91 92 93
3 95 94 96
3 96 97 81
3 94 97 96
3 81 97 82
3 83 80 99
3 80 110 98
3 84 83 99
3 80 98 99
3 85 84 100
3 84 99 100
3 86 85 101
3 85 100 101
3 87 86 102
3 86 101 102
3 88 87 103
3 87 102 103
3 88 103 104
3 88 104 89
3 89 104 105
3 89 105 90
3 92 105 106
3 90 105 92
3 93 92 107
3 92 114 107
3 108 94 109
3 94 95 109
3 97 94 110
3 94 108 110
3 98 110 111
3 97 110 80
3 111 1 98
3 1 99 98
3 1 2 99
3 99 2 100
3 2 4 100
3 100 4 101
3 4 6 101
3 101 6 102
3 6 8 102
3 8 10 103
3 8 103 102
3 103 10 104
3 10 112 104
3 10 11 112
3 105 112 106
3 104 112 105
3 106 113 114
3 18 113 106
3 107 116 115
3 114 116 107
3 106 114 92
3 115 116 117
3 119 118 120
3 120 118 121
3 120 121 109
3 109 121 108
3 110 108 111
3 108 121 122
3 111 122 123
3 108 122 111
3 13 1 111
3 13 111 123
3 112 11 18
3 112 18 106
3 18 20 113
3 113 20 124
3 114 113 125
3 113 124 125
3 116 125 127
3 114 125 116
3 117 116 127
3 125 126 127
3 128 118 129
3 118 119 129
3 121 118 130
3 118 128 130
3 122 130 131
3 121 130 122
3 123 122 131
3 123 131 132
3 132 22 123
3 22 13 123
3 20 133 124
3 28 133 20
3 125 124 126
3 124 133 134
3 126 124 134
3 126 134 135
3 127 126 136
3 126 135 136
3 137 128 138
3 128 129 138
3 128 137 139
3 128 139 130
3 131 130 139
3 131 139 140
3 132 131 140
3 132 140 141
3 141 30 132
3 30 22 132
3 28 36 133
3 36 142 133
3 134 142 143
3 133 142 134
3 135 134 143
3 135 143 144
3 136 135 145
3 135 144 145
3 146 137 138
3 139 137 147
3 137 148 147
3 137 146 148
3 140 139 147
3 140 147 149
3 141 140 149
3 141 149 150
3 150 38 141
3 38 30 141
3 36 44 142
3 44 151 142
3 143 142 152
3 142 151 152
3 144 152 153
3 143 152 144
3 145 144 154
3 144 153 154
3 155 148 156
3 147 148 155
3 149 155 157
3 147 155 149
3 150 157 158
3 149 157 150
3 45 150 158
3 45 158 159
3 38 150 45
3 47 45 159
3 51 52 160
3 51 161 151
3 51 151 44
3 51 160 161
3 152 151 162
3 151 161 162
3 153 162 163
3 152 162 153
3 154 153 164
3 153 163 164
3 165 156 166
3 155 156 165
3 157 165 167
3 155 165 157
3 158 167 168
3 157 167 158
3 159 168 169
3 158 168 159
3 47 169 170
3 47 170 53
3 47 159 169
3 54 53 171
3 53 170 171
3 55 54 172
3 54 171 172
3 55 172 173
3 55 173 56
3 52 56 160
3 56 174 160
3 56 173 174
3 161 160 175
3 160 174 175
3 162 161 176
3 161 175 176
3 163 178 177
3 176 178 163
3 162 176 163
3 164 163 177
3 179 165 166
3 167 165 179
3 179 181 167
3 167 181 180
3 168 180 182
3 167 180 168
3 169 182 183
3 168 182 169
3 170 169 183
3 170 183 184
3 171 170 184
3 171 184 185
3 172 171 185
3 172 185 186
3 173 186 187
3 172 186 173
3 174 187 188
3 173 187 174
3 175 188 189
3 174 188 175
3 176 175 191
3 176 191 178
3 175 189 191
3 178 191 190
3 192 180 181
3 182 180 193
3 180 192 193
3 183 182 194
3 193 195 194
3 182 193 194
3 183 194 196
3 183 196 184
3 185 184 197
3 184 196 197
3 186 185 198
3 185 197 198
3 187 186 199
3 186 198 199
3 188 187 200
3 187 199 200
3 189 202 201
3 188 202 189
3 188 200 202
3 191 189 201
3 203 194 195
3 196 194 203
3 196 203 204
3 197 196 204
3 197 204 205
3 198 197 205
3 198 205 206
3 199 206 207
3 198 206 199
3 200 207 208
3 199 207 200
3 202 200 208
3 210 209 211
3 211 209 213
3 209 212 213
3 213 212 215
3 212 214 215
3 215 214 217
3 214 216 217
3 217 216 218
3 220 219 221
3 221 219 223
3 219 222 223
3 223 222 224
3 223 224 210
3 210 224 209
3 212 209 225
3 209 224 225
3 214 212 226
3 212 225 226
3 214 226 227
3 214 227 216
3 218 216 228
3 216 229 228
3 216 227 229
3 228 230 231
3 229 230 228
3 231 230 232
3 234 233 235
3 235 233 237
3 233 236 237
3 237 236 238
3 237 238 220
3 220 238 219
3 222 219 239
3 219 238 239
3 239 58 222
3 59 224 222
3 58 59 222
3 224 59 225
3 59 61 225
3 225 61 226
3 61 63 226
3 226 64 227
3 63 64 226
3 227 64 240
3 229 240 241
3 227 240 229
3 230 241 242
3 229 241 230
3 232 230 242
3 232 242 243
3 243 242 244
3 243 245 246
3 244 245 243
3 246 245 247
3 249 248 250
3 250 248 251
3 250 251 234
3 234 251 233
3 236 233 252
3 233 251 252
3 252 66 236
3 66 67 236
3 236 67 238
3 238 67 239
3 67 69 239
3 239 69 58
3 240 64 73
3 240 76 241
3 73 76 240
3 241 78 242
3 76 78 241
3 242 78 244
3 79 244 78
3 79 253 244
3 245 253 254
3 244 253 245
3 247 245 255
3 245 254 255
3 256 248 257
3 248 249 257
3 251 248 258
3 248 256 258
3 258 252 251
3 81 252 258
3 81 66 252
3 81 82 66
3 253 79 91
3 253 91 254
3 91 93 254
3 254 93 259
3 255 254 259
3 255 259 260
3 260 259 261
3 260 261 262
3 264 263 265
3 265 266 257
3 266 256 257
3 263 266 265
3 266 95 256
3 95 96 256
3 256 96 258
3 258 96 81
3 93 267 259
3 107 267 93
3 261 267 268
3 259 267 261
3 262 261 269
3 261 268 269
3 269 268 270
3 269 270 271
3 272 263 273
3 263 264 273
3 266 263 274
3 263 272 274
3 274 95 266
3 109 95 274
3 267 107 115
3 267 115 268
3 115 275 268
3 115 117 275
3 270 275 276
3 268 275 270
3 271 270 277
3 270 276 277
3 279 278 280
3 280 278 281
3 280 281 273
3 273 281 272
3 281 119 272
3 119 120 272
3 272 120 274
3 274 120 109
3 117 282 275
3 127 282 117
3 276 282 283
3 275 282 276
3 277 276 284
3 276 283 284
3 285 278 286
3 278 279 286
3 281 278 287
3 278 285 287
3 287 119 281
3 129 119 287
3 127 136 282
3 136 288 282
3 283 282 288
3 283 288 289
3 284 283 290
3 283 289 290
3 291 285 292
3 285 286 292
3 287 285 293
3 285 291 293
3 293 129 287
3 138 129 293
3 136 145 288
3 145 294 288
3 289 288 295
3 288 294 295
3 290 289 296
3 289 295 296
3 297 291 298
3 291 292 298
3 291 297 299
3 291 299 293
3 146 293 299
3 146 299 300
3 138 293 146
3 148 146 300
3 145 154 294
3 154 301 294
3 295 294 302
3 294 301 302
3 296 295 303
3 295 302 303
3 304 297 298
3 299 297 305
3 297 306 305
3 297 304 306
3 300 305 307
3 299 305 300
3 307 156 300
3 156 148 300
3 154 164 301
3 164 308 301
3 302 301 309
3 301 308 309
3 303 302 310
3 302 309 310
3 311 306 312
3 305 306 311
3 307 311 313
3 305 311 307
3 313 166 307
3 166 156 307
3 177 178 314
3 177 315 308
3 177 308 164
3 177 314 315
3 309 308 316
3 308 315 316
3 310 309 317
3 309 316 317
3 318 311 312
3 313 311 318
3 313 320 319
3 313 318 320
3 166 319 179
3 319 321 179
3 166 313 319
3 181 179 321
3 190 201 322
3 178 190 314
3 190 323 314
3 190 322 323
3 315 314 324
3 314 323 324
3 316 326 325
3 315 326 316
3 315 324 326
3 317 316 325
3 327 320 328
3 319 320 327
3 321 327 329
3 319 327 321
3 192 329 330
3 181 329 192
3 181 321 329
3 193 192 331
3 192 330 331
3 195 193 331
3 201 202 332
3 191 201 190
3 201 333 322
3 201 332 333
3 323 322 334
3 322 333 334
3 324 336 335
3 323 336 324
3 323 334 336
3 326 324 335
3 337 327 328
3 329 327 338
3 327 337 338
3 330 340 339
3 338 340 330
3 329 338 330
3 331 339 341
3 330 339 331
3 203 195 342
3 195 341 342
3 195 331 341
3 204 203 343
3 203 342 343
3 205 204 344
3 204 343 344
3 206 205 345
3 205 344 345
3 207 206 346
3 206 345 346
3 207 346 347
3 207 347 208
3 202 208 332
3 347 348 208
3 208 348 332
3 333 332 349
3 332 348 349
3 334 351 350
3 333 351 334
3 333 349 351
3 336 334 350
3 352 339 340
3 341 339 354
3 341 354 353
3 339 352 354
3 342 353 355
3 341 353 342
3 343 355 356
3 342 355 343
3 344 343 356
3 344 356 357
3 345 344 358
3 344 357 358
3 346 345 359
3 345 358 359
3 347 346 360
3 346 359 360
3 348 347 361
3 347 360 361
3 349 363 362
3 348 363 349
3 348 361 363
3 351 349 362
3 364 353 354
3 355 353 365
3 353 364 365
3 356 355 366
3 355 365 366
3 357 356 366
3 357 366 367
3 358 357 367
3 358 367 368
3 359 368 369
3 358 368 359
3 360 369 370
3 359 369 360
3 361 370 371
3 360 370 361
3 363 361 371
3 373 372 374
3 374 372 376
3 372 375 376
3 376 377 378
3 375 377 376
3 378 377 379
3 378 379 380
3 380 379 381
3 380 381 382
3 382 383 384
3 381 383 382
3 384 385 386
3 383 385 384
3 386 385 387
3 389 388 390
3 390 388 392
3 388 391 392
3 392 391 393
3 392 393 373
3 373 393 372
3 375 372 394
3 372 393 394
3 394 210 375
3 211 377 375
3 210 211 375
3 377 211 379
3 211 213 379
3 379 213 381
3 213 215 381
3 381 217 383
3 215 217 381
3 383 217 218
3 218 395 385
3 383 218 385
3 387 395 397
3 387 397 396
3 385 395 387
3 397 398 399
3 397 399 396
3 399 398 400
3 402 401 403
3 403 401 404
3 403 404 389
3 389 404 388
3 391 388 405
3 388 404 405
3 405 220 391
3 220 221 391
3 391 221 393
3 393 221 394
3 221 223 394
3 394 223 210
3 395 218 228
3 395 231 397
3 228 231 395
3 397 231 398
3 231 232 398
3 398 232 406
3 400 408 407
3 406 408 400
3 398 406 400
3 408 409 410
3 408 410 407
3 410 409 411
3 413 412 414
3 414 412 415
3 414 415 402
3 402 415 401
3 415 234 401
3 234 235 401
3 401 235 404
3 404 235 405
3 235 237 405
3 405 237 220
3 406 232 243
3 406 246 408
3 243 246 406
3 408 246 409
3 247 416 409
3 246 247 409
3 411 409 416
3 411 418 417
3 411 416 418
3 417 418 419
3 421 420 422
3 422 420 423
3 422 423 413
3 413 423 412
3 423 249 412
3 249 250 412
3 412 250 415
3 415 250 234
3 247 424 416
3 255 424 247
3 418 424 425
3 416 424 418
3 419 418 426
3 418 425 426
3 427 420 428
3 420 421 428
3 423 420 429
3 420 427 429
3 429 249 423
3 257 249 429
3 424 255 260
3 424 260 425
3 260 262 425
3 425 262 430
3 426 430 431
3 425 430 426
3 431 430 433
3 430 432 433
3 435 434 436
3 436 434 437
3 436 437 428
3 428 437 427
3 437 264 427
3 264 265 427
3 427 265 429
3 429 265 257
3 430 262 432
3 262 269 432
3 271 438 432
3 269 271 432
3 433 432 439
3 432 438 439
3 440 434 441
3 434 435 441
3 437 434 442
3 434 440 442
3 442 264 437
3 273 264 442
3 277 443 438
3 277 438 271
3 439 438 444
3 438 443 444
3 444 443 445
3 444 445 446
3 447 440 448
3 440 441 448
3 447 279 440
3 279 280 440
3 440 280 442
3 442 280 273
3 277 284 443
3 284 449 443
3 445 449 450
3 443 449 445
3 446 445 451
3 445 450 451
3 452 447 453
3 447 448 453
3 452 286 447
3 286 279 447
3 284 290 449
3 290 454 449
3 450 454 455
3 449 454 450
3 451 450 456
3 450 455 456
3 457 452 458
3 452 453 458
3 457 292 452
3 292 286 452
3 290 296 454
3 296 459 454
3 455 459 460
3 454 459 455
3 456 455 461
3 455 460 461
3 462 457 463
3 457 458 463
3 462 298 457
3 298 292 457
3 296 303 459
3 303 464 459
3 460 464 465
3 459 464 460
3 461 460 466
3 460 465 466
3 467 462 468
3 462 463 468
3 304 298 462
3 304 467 469
3 304 462 467
3 306 304 469
3 303 310 464
3 310 470 464
3 465 472 471
3 464 470 465
3 465 470 472
3 466 465 471
3 473 467 468
3 469 475 474
3 467 475 469
3 467 473 475
3 474 312 469
3 312 306 469
3 310 317 470
3 317 476 470
3 472 476 477
3 470 476 472
3 474 475 479
3 474 484 478
3 318 312 478
3 318 478 480
3 312 474 478
3 320 318 480
3 325 326 481
3 317 325 476
3 325 482 476
3 325 481 482
3 477 482 483
3 476 482 477
3 484 474 479
3 484 486 485
3 478 485 480
3 478 484 485
3 491 328 480
3 328 320 480
3 335 336 487
3 335 488 481
3 335 481 326
3 335 487 488
3 482 481 489
3 488 490 489
3 481 488 489
3 483 482 489
3 485 486 492
3 485 492 491
3 337 328 491
3 337 491 493
3 480 485 491
3 338 337 494
3 337 493 494
3 340 338 494
3 350 351 495
3 336 350 487
3 350 496 487
3 350 495 496
3 488 498 490
3 487 498 488
3 487 496 498
3 490 498 497
3 499 491 492
3 493 491 499
3 493 501 500
3 493 499 501
3 494 500 502
3 493 500 494
3 352 340 502
3 352 502 503
3 340 494 502
3 354 352 510
3 362 363 504
3 351 362 495
3 362 505 495
3 362 504 505
3 496 507 506
3 495 507 496
3 495 505 507
3 498 496 506
3 508 500 501
3 502 500 509
3 500 508 509
3 503 523 510
3 509 511 503
3 502 509 503
3 364 510 512
3 354 510 364
3 352 503 510
3 365 364 513
3 364 512 513
3 366 365 514
3 365 513 514
3 367 366 515
3 366 514 515
3 368 367 516
3 367 515 516
3 369 368 517
3 368 516 517
3 370 369 518
3 369 517 518
3 370 518 519
3 370 519 371
3 371 520 504
3 371 504 363
3 371 519 520
3 505 522 521
3 504 522 505
3 504 520 522
3 507 505 521
3 523 503 511
3 512 523 524
3 510 523 512
3 513 512 526
3 513 526 525
3 512 524 526
3 514 525 527
3 513 525 514
3 515 527 528
3 514 527 515
3 516 515 528
3 516 528 529
3 517 529 530
3 516 529 517
3 518 517 530
3 530 532 531
3 518 530 531
3 519 531 533
3 518 531 519
3 520 533 534
3 519 533 520
3 522 520 534
3 535 525 526
3 527 525 536
3 525 535 536
3 528 527 537
3 527 536 537
3 529 528 538
3 528 537 538
3 530 529 539
3 529 538 539
3 532 530 539
3 548 390 549
3 549 373 540
3 374 540 373
3 374 376 541
3 541 376 542
3 376 378 542
3 542 378 543
3 378 380 543
3 543 380 544
3 380 382 544
3 544 382 545
3 382 384 545
3 384 386 546
3 384 546 545
3 386 387 550
3 389 390 547
3 389 547 554
3 547 390 548
3 390 392 549
3 549 392 373
3 550 387 396
3 396 399 551
3 396 551 550
3 551 399 552
3 399 400 552
3 552 407 555
3 558 402 553
3 402 403 553
3 553 403 554
3 554 403 389
3 552 400 407
3 407 410 555
3 410 556 555
3 556 410 559
3 410 411 559
3 560 413 557
3 413 414 557
3 557 414 558
3 558 414 402
3 559 411 417
3 417 419 561
3 562 422 560
3 421 422 562
3 560 422 413
3 419 564 561
3 431 564 419
3 563 421 562
3 567 421 563
3 428 421 567
3 419 426 431
3 564 431 565
3 431 433 565
3 565 433 568
3 436 567 566
3 435 436 566
3 567 436 428
3 439 570 568
3 439 568 433
3 568 570 571
3 571 570 572
3 441 435 569
3 441 569 573
3 570 439 444
3 570 446 572
3 446 574 572
3 444 446 570
3 575 448 573
3 448 441 573
3 451 576 574
3 451 574 446
3 577 453 575
3 453 448 575
3 451 456 576
3 456 578 576
3 579 458 577
3 458 453 577
3 456 461 578
3 461 580 578
3 581 463 579
3 463 458 579
3 461 466 580
3 466 582 580
3 583 468 581
3 468 463 581
3 471 472 584
3 471 585 582
3 471 582 466
3 471 584 585
3 468 583 473
3 475 473 586
3 477 587 584
3 477 584 472
3 479 475 586
3 479 586 588
3 477 483 587
3 483 589 587
3 484 479 590
3 484 590 486
3 479 588 590
3 486 590 591
3 489 490 592
3 592 589 483
3 489 592 483
3 593 486 591
3 492 486 593
3 490 497 594
3 490 594 592
3 499 492 595
3 492 593 595
3 501 499 595
3 506 507 596
3 498 506 497
3 506 597 497
3 506 596 597
3 508 598 599
3 501 598 508
3 595 598 501
3 509 508 600
3 508 599 600
3 511 509 600
3 521 522 601
3 507 521 596
3 521 602 596
3 521 601 602
3 511 603 604
3 511 604 523
3 511 600 603
3 524 604 605
3 523 604 524
3 526 524 605
3 531 532 606
3 533 606 607
3 531 606 533
3 533 607 534
3 607 608 534
3 522 534 609
3 522 609 601
3 534 608 609
3 535 610 611
3 605 610 535
3 526 605 535
3 536 611 612
3 535 611 536
3 537 536 612
3 537 612 613
3 538 537 613
3 538 613 614
3 539 538 614
3 539 614 615
3 532 615 616
3 532 616 606
3 539 615 532

CELL_TYPES 1150
5
5
5
5
5
5
5
5
5
5
5
5
5
5
5
5
5
5
5
5
5
5
5
5
5
5
5
5
5
5
5
5
5
5
5
5
5
5
5
5
5
5
5
5
5
5
5
5
5
5
5
5
5
5
5
5
5
5
5
5
5
5
5
5
5
5
5
5
5
5
5
5
5
5
5
5
5
5
5
5
5
5
5
5
5
5
5
5
5
5
5
5
5
5
5
5
5
5
5
5
5
5
5
5
5
5
5
5
5
5
5
5
5
5
5
5
5
5
5
5
5
5
5
5
5
5
5
5
5
5
5
5
5
5
5
5
5
5
5
5
5
5
5
5
5
5
5
5
5
5
5
5
5
5
5
5
5
5
5
5
5
5
5
5
5
5
5
5
5
5
5
5
5
5
5
5
5
5
5
5
5
5
5
5
5
5
5
5
5
5
5
5
5
5
5
5
5
5
5
5
5
5
5
5
5
5
5
5
5
5
5
5
5
5
5
5
5
5
5
5
5
5
5
5
5
5
5
5
5
5
5
5
5
5
5
5
5
5
5
5
5
5
5
5
5
5
5
5
5
5
5
5
5
5
5
5
5
5
5
5
5
5
5
5
5
5
5
5
5
5
5
5
5
5
5
5
5
5
5
5
5
5
5
5
5
5
5
5
5
5
5
5
5
5
5
5
5
5
5
5
5
5
5
5
5
5
5
5
5
5
5
5
5
5
5
5
5
5
5
5
5
5
5
5
5
5
5
5
5
5
5
5
5
5
5
5
5
5
5
5
5
5
5
5
5
5
5
5
5
5
5
5
5
5
5
5
5
5
5
5
5
5
5
5
5
5
5
5
5
5
5
5
5
5
5
5
5
5
5
5
5
5
5
5
5
5
5
5
5
5
5
5
5
5
5
5
5
5
5
5
5
5
5
5
5
5
5
5
5
5
5
5
5
5
5
5
5
5
5
5
5
5
5
5
5
5
5
5
5
5
5
5
5
5
5
5
5
5
5
5
5
5
5
5
5
5
5
5
5
5
5
5
5
5
5
5
5
5
5
5
5
5
5
5
5
5
5
5
5
5
5
5
5
5
5
5
5
5
5
5
5
5
5
5
5
5
5
5
5
5
5
5
5
5
5
5
5
5
5
5
5
5
5
5
5
5
5
5
5
5
5
5
5
5
5
5
5
5
5
5
5
5
5
5
5
5
5
5
5
5
5
5
5
5
5
5
5
5
5
5
5
5
5
5
5
5
5
5
5
5
5
5
5
5
5
5
5
5
5
5
5
5
5
5
5
5
5
5
5
5
5
5
5
5
5
5
5
5
5
5
5
5
5
5
5
5
5
5
5
5
5
5
5
5
5
5
5
5
5
5
5
5
5
5
5
5
5
5
5
5
5
5
5
5
5
5
5
5
5
5
5
5
5
5
5
5
5
5
5
5
5
5
5
5
5
5
5
5
5
5
5
5
5
5
5
5
5
5
5
5
5
5
5
5
5
5
5
5
5
5
5
5
5
5
5
5
5
5
5
5
5
5
5
5
5
5
5
5
5
5
5
5
5
5
5
5
5
5
5
5
5
5
5
5
5
5
5
5
5
5
5
5
5
5
5
5
5
5
5
5
5
5
5
5
5
5
5
5
5
5
5
5
5
5
5
5
5
5
5
5
5
5
5
5
5
5
5
5
5
5
5
5
5
5
5
5
5
5
5
5
5
5
5
5
5
5
5
5
5
5
5
5
5
5
5
5
5
5
5
5
5
5
5
5
5
5
5
5
5
5
5
5
5
5
5
5
5
5
5
5
5
5
5
5
5
5
5
5
5
5
5
5
5
5
5
5
5
5
5
5
5
5
5
5
5
5
5
5
5
5
5
5
5
5
5
5
5
5
5
5
5
5
5
5
5
5
5
5
5
5
5
5
5
5
5
5
5
5
5
5
5
5
5
5
5
5
5
5
5
5
5
5
5
5
5
5
5
5
5
5
5
5
5
5
5
5
5
5
5
5
5
5
5
5
5
5
5
5
5
5
5
5
5
5
5
5
5
5
5
5
5
5
5
5
5
5
5
5
5
5
5
5
5
5
5
5
5
5
5
5
5
5
5
5
5
5
5
5
5
5
5
5
5
5
5
5
5
5
5
5
5
5
5
5
5
5
5
5
5
5
5
5
5
5
5
5
5
5
5
5
5
5
5
5
5
5
5
5
5
5
5
5
5
5
5
5
5
5
5
5
5
5
5
5
5
5
5
5
5
5
5
5
5
5
5
5
5
5
5
5
5
5
5
5
5
5
5
5
5
5
5
5
5
5
5
5
5
5
5
5
5
5
5
5
5
5
5
5
5
5
5
5
5
5
5
5
5
5
5
5
5
5
5
5
5
5
5
5
5
5
5
5
5
5
5
5
5
5
5
5
5
5
5
5
5
5
5
5
5
5
5
5
5
5
5
5
5
5
5
5
5
5
5
5
5
5
5
5
5
5
5
5
5
5
5
5
5
5
5
5
5
5
5
5
5
5
5
5
5
5
5
5
5
5
5
5
5
5
5
5
5
5
5
5
5
5
5
5
5
5
5
5
5
5
5
5
5
5
5
5
5
5
5
5
5
5
5
5
5
5

POINT_DATA 617

SCALARS deformation double
LOOKUP_TABLE default 
-0.00008051
-0.00007816
-0.00007675
-0.00008693
-0.00007622
-0.00008316
-0.00007972
-0.00008368
-0.00007714
-0.00008395
-0.00007824
-0.00007752
-0.00008300
-0.00007655
-0.00008419
-0.00008754
-0.00008968
-0.00008420
-0.00007237
-0.00007837
-0.00007746
-0.00008513
-0.00007775
-0.00008467
-0.00008767
-0.00009114
-0.00008869
-0.00008423
-0.00007719
-0.00008502
-0.00007571
-0.00008703
-0.00008944
-0.00008799
-0.00008505
-0.00008126
-0.00007960
-0.00007930
-0.00007808
-0.00008554
-0.00008528
-0.00008839
-0.00008292
-0.00007888
-0.00007726
-0.00007753
-0.00008565
-0.00007741
-0.00008232
-0.00008251
-0.00008537
-0.00007317
-0.00007668
-0.00007622
-0.00007677
-0.00007617
-0.00007782
-0.00003662
-0.00002640
-0.00001535
-0.00004105
-0.00002079
-0.00004215
-0.00002514
-0.00002110
-0.00004275
-0.00002642
-0.00002337
-0.00005049
-0.00003518
-0.00004848
-0.00005289
-0.00005518
-0.00003509
-0.00005131
-0.00004563
-0.00002591
-0.00003869
-0.00001286
-0.00002380
-0.00005766
-0.00002649
-0.00004524
-0.00005479
-0.00006530
-0.00006600
-0.00006632
-0.00006380
-0.00006037
-0.00005484
-0.00004379
-0.00002713
-0.00004490
-0.00002356
-0.00004177
-0.00002366
-0.00002538
-0.00004493
-0.00006443
-0.00006605
-0.00007208
-0.00007544
-0.00007412
-0.00006926
-0.00006720
-0.00005608
-0.00005971
-0.00003577
-0.00005368
-0.00003801
-0.00005597
-0.00006667
-0.00006675
-0.00006588
-0.00005174
-0.00002312
-0.00004349
-0.00002953
-0.00003597
-0.00001328
-0.00002640
-0.00004582
-0.00006448
-0.00007183
-0.00006711
-0.00005367
-0.00005463
-0.00004287
-0.00004302
-0.00002168
-0.00005100
-0.00006572
-0.00007573
-0.00007473
-0.00006450
-0.00005189
-0.00003654
-0.00004164
-0.00002597
-0.00005534
-0.00006497
-0.00007327
-0.00006982
-0.00006153
-0.00004842
-0.00003654
-0.00002208
-0.00005340
-0.00003622
-0.00006214
-0.00006842
-0.00006821
-0.00006416
-0.00004845
-0.00003426
-0.00004940
-0.00003108
-0.00005680
-0.00006160
-0.00006612
-0.00006934
-0.00006388
-0.00005754
-0.00004442
-0.00003074
-0.00004261
-0.00002107
-0.00004797
-0.00005573
-0.00006648
-0.00006836
-0.00007287
-0.00007299
-0.00006674
-0.00006475
-0.00005881
-0.00005059
-0.00002322
-0.00003521
-0.00002949
-0.00004400
-0.00002972
-0.00005389
-0.00005769
-0.00006294
-0.00006705
-0.00006404
-0.00005869
-0.00005309
-0.00004801
-0.00002569
-0.00004274
-0.00002277
-0.00003667
-0.00004406
-0.00002414
-0.00004804
-0.00005216
-0.00005112
-0.00004923
-0.00004354
-0.00002777
-0.00003604
-0.00003210
-0.00003663
-0.00003632
-0.00003497
-0.00003168
-0.00002314
-0.00000214
-0.00000535
-0.00000733
-0.00000140
-0.00000691
-0.00000023
-0.00000634
-0.00000376
-0.00000708
-0.00000781
0.00000590
-0.00000374
-0.00000541
-0.00000084
-0.00000249
0.00000413
0.00000505
0.00000055
0.00000391
-0.00000567
0.00000342
-0.00000189
-0.00000724
-0.00000533
0.00000255
-0.00000514
-0.00000572
-0.00000330
-0.00000109
0.00000171
-0.00001096
-0.00001380
0.00000043
0.00000485
-0.00000396
0.00000093
0.00000016
-0.00000680
-0.00000571
-0.00000090
-0.00000617
-0.00000576
0.00000178
-0.00000587
-0.00000624
0.00000070
0.00000097
0.00000025
0.00000044
-0.00000400
0.00000085
-0.00000418
0.00000162
-0.00000602
0.00000303
-0.00000537
-0.00000380
0.00000249
-0.00001236
0.00000456
-0.00000139
0.00000170
-0.00000548
0.00000019
0.00000018
-0.00001582
-0.00001023
0.00000202
-0.00000436
-0.00000334
-0.00000743
-0.00000499
0.00000493
-0.00002072
0.00000600
-0.00000122
-0.00000039
-0.00000685
0.00000223
-0.00001832
0.00000705
-0.00000262
-0.00000077
-0.00000646
-0.00000221
-0.00001871
0.00000295
-0.00000307
-0.00000368
-0.00000703
0.00000195
-0.00001511
-0.00001329
0.00000502
-0.00000350
-0.00000770
0.00000518
-0.00000467
-0.00000422
-0.00000810
0.00000602
-0.00000359
0.00000150
-0.00000649
0.00000170
-0.00001072
0.00000108
0.00000048
-0.00000473
-0.00000451
-0.00000315
0.00000028
-0.00001023
-0.00000876
-0.00000003
0.00000513
-0.00000661
-0.00000372
0.00000393
-0.00000467
-0.00000593
0.00000076
-0.00001085
-0.00001508
0.00000329
0.00000223
-0.00000567
-0.00000368
-0.00000545
-0.00000046
0.00000506
-0.00000403
0.00000001
-0.00001042
-0.00001848
-0.00001807
-0.00001831
-0.00001471
-0.00000559
0.00000109
0.00000164
-0.00000569
-0.00000063
-0.00000582
0.00000139
-0.00000374
0.00000695
0.00000140
0.00000672
0.00000650
0.00000311
0.00000200
0.00000238
-0.00000581
-0.00000407
-0.00000620
-0.00000419
-0.00000328
-0.00000334
-0.00000241
-0.00000449
-0.00000502
-0.00000640
-0.00000859
-0.00000874
-0.00000876
-0.00000819
-0.00000874
-0.00000852
-0.00000874
-0.00000840
-0.00000873
-0.00000832
-0.00000874
-0.00000850
-0.00000876
-0.00000866
-0.00000876
-0.00000876
-0.00000848
-0.00000873
-0.00000876
-0.00000774
-0.00000865
-0.00000827
-0.00000738
-0.00000828
-0.00000879
-0.00000858
-0.00000822
-0.00000878
-0.00000868
-0.00000804
-0.00000868
-0.00000869
-0.00000824
-0.00000697
-0.00000776
-0.00000879
-0.00000852
-0.00000834
-0.00000877
-0.00000870
-0.00000817
-0.00000873
-0.00000870
-0.00000805
-0.00000807
-0.00000875
-0.00000850
-0.00000873
-0.00000850
-0.00000879
-0.00000877
-0.00000829
-0.00000659
-0.00000771
-0.00000854
-0.00000770
-0.00000865
-0.00000678
-0.00000820
-0.00000870
-0.00000759
-0.00000862
-0.00000852
-0.00000878
-0.00000875
-0.00000817
-0.00000776
-0.00000852
-0.00000831
-0.00000878
-0.00000701
-0.00000721
-0.00000848
-0.00000839
-0.00000870
-0.00000848
-0.00000879
-0.00000698
-0.00000840
-0.00000871
-0.00000842
-0.00000881
-0.00000724
-0.00000846
-0.00000873
-0.00000844
-0.00000882
-0.00000742
-0.00000852
-0.00000875
-0.00000857
-0.00000883
-0.00000754
-0.00000857
-0.00000877
-0.00000868
-0.00000884
-0.00000806
-0.00000772
-0.00000877
-0.00000864
-0.00000883
-0.00000846
-0.00000875
-0.00000808
-0.00000873
-0.00000795
-0.00000880
-0.00000686
-0.00000773
-0.00000844
-0.00000878
-0.00000871
-0.00000849
-0.00000880
-0.00000760
-0.00000830
-0.00000867
-0.00000878
-0.00000804
-0.00000876
-0.00000819
-0.00000690
-0.00000712
-0.00000820
-0.00000880
-0.00000862
-0.00000870
-0.00000856
-0.00000879
-0.00000795
-0.00000843
-0.00000786
-0.00000827
-0.00000875
-0.00000854
-0.00000884
-0.00000878
-0.00000774
-0.00000884
-0.00000837
-0.00000798
-0.00000758
-0.00000739
-0.00000734
-0.00000748
-0.00000787
-0.00000805
-0.00000844
-0.00000875
-0.00000871
-0.00000873
-0.00000882
-0.00000865
-0.00000876
-0.00000857
-0.00000852
-0.00000856
-0.00000863
-0.00000871
-0.00000884
-0.00000873
-0.00000880
-0.00000883
-0.00000883
-0.00000882
-0.00000882
-0.00000883
-0.00000870
-0.00000869
-0.00000872
-0.00000871
-0.00000871
-0.00000870
-0.00000866
-0.00000871
-0.00000863
-0.00000875
-0.00000869
-0.00000872
-0.00000878
-0.00000874
-0.00000874
-0.00000874
-0.00000867
-0.00000877
-0.00000876
-0.00000874
-0.00000876
-0.00000866
-0.00000873
-0.00000867
-0.00000869
-0.00000868
-0.00000871
-0.00000878
-0.00000870
-0.00000873
-0.00000870
-0.00000862
-0.00000865
-0.00000877
-0.00000868
-0.00000879
-0.00000869
-0.00000880
-0.00000870
-0.00000880
-0.00000870
-0.00000878
-0.00000868
-0.00000874
-0.00000876
-0.00000865
-0.00000879
-0.00000875
-0.00000873
-0.00000870
-0.00000878
-0.00000868
-0.00000879
-0.00000876
-0.00000875
-0.00000880
-0.00000878
-0.00000875
-0.00000878
-0.00000873
-0.00000880
-0.00000878
-0.00000874
-0.00000877
-0.00000883
-0.00000882
-0.00000883
-0.00000882
-0.00000874
-0.00000878
-0.00000871
-0.00000874
-0.00000876
-0.00000877
-0.00000877
-0.00000875
-0.00000872


SCALARS normal_stress double
LOOKUP_TABLE default 
-0.11729081
-0.30496009
-0.16659563
-0.36497256
-0.05745450
-0.13740812
-0.18699919
-0.15050625
-0.09810554
-0.20915546
-0.26930039
-0.16761558
-0.19634111
-0.16029105
-0.12370600
-0.17701898
-0.24359661
-0.15775762
-0.17612063
-0.12622058
-0.26815349
-0.24133764
-0.12924079
-0.12448967
-0.15563033
-0.23167907
-0.19621596
-0.19381532
-0.06223008
-0.23538504
-0.03644039
-0.16840546
-0.21495851
-0.14716276
-0.13127923
-0.13098451
-0.20536067
-0.07070970
-0.18395454
-0.16053865
-0.12361974
-0.25179342
-0.13849876
-0.16095906
-0.21276037
-0.28663201
-0.32132589
-0.21914459
-0.14375315
-0.14207905
-0.28497098
-0.17908184
-0.10299736
-0.11483023
-0.12647866
-0.10822180
-0.28227385
-0.09705622
-0.04152856
-0.05685000
-0.08289338
-0.06414322
-0.14260423
-0.05986209
-0.08535333
-0.14280800
-0.05653410
-0.09993542
-0.04247498
-0.07221637
-0.16155701
-0.08041489
-0.15124702
-0.07919480
-0.10005412
-0.09616760
-0.04436360
-0.13770214
0.03492532
-0.04188430
-0.16913069
-0.04175220
-0.15833649
-0.10095180
-0.21339820
-0.22688557
-0.16186413
-0.14058100
-0.14777841
-0.16250377
-0.12861258
-0.04148400
-0.11392588
-0.08785512
-0.09271364
-0.10535028
-0.05325025
-0.12740762
-0.07937978
-0.09417963
-0.15289261
-0.23261751
-0.18809764
-0.09932476
-0.19737536
-0.11162847
-0.13070281
-0.08130455
-0.11088955
-0.12072804
-0.13472780
-0.12496517
-0.08699868
-0.18948123
-0.12184887
-0.05439782
-0.15900059
-0.05848453
-0.09819617
0.00669749
-0.04506181
-0.08910307
-0.25102792
-0.14924073
-0.16822850
-0.07829714
-0.12965549
-0.11981019
-0.15427391
-0.06537248
-0.04996616
-0.16252168
-0.25319110
-0.19233665
-0.12878917
-0.16446976
-0.06043242
-0.09582448
-0.06280396
-0.14422171
-0.12985720
-0.20556262
-0.11053236
-0.15526913
-0.08116572
-0.10398355
-0.08477106
-0.12976856
-0.05851773
-0.14099255
-0.12097355
-0.12902143
-0.24697668
-0.11679517
-0.09095752
-0.14320353
-0.09041648
-0.15027567
-0.12410016
-0.05494256
-0.14460823
-0.15739643
-0.12527858
-0.14601829
-0.06786290
-0.12323734
-0.07652724
-0.12750138
-0.10521840
-0.21583319
-0.09979792
-0.19318328
-0.19671625
-0.05733116
-0.13877104
-0.15589160
-0.08494172
-0.05055798
-0.09006256
-0.05973483
-0.13493149
-0.03870716
-0.16575200
-0.11648624
-0.16033601
-0.23928516
-0.20074765
-0.15281636
-0.10678542
-0.19372278
-0.09052420
-0.09859817
-0.04904449
-0.12051231
-0.11164587
-0.04892732
-0.09465579
-0.13241672
-0.10404092
-0.12872701
-0.09725245
-0.07782672
-0.08019849
-0.05936094
-0.10807103
-0.07223092
-0.06871658
-0.10367570
-0.04715238
0.03780092
0.00000000
0.00000000
0.04637660
0.00000000
0.10028421
0.00000000
0.00000000
0.00000000
0.00000000
0.32318194
0.00000000
0.00000000
0.23337296
0.01447733
0.27492539
0.37990490
0.27021291
0.33683036
0.00000000
0.24832682
0.03786646
0.00000000
0.00000000
0.21349115
0.00000000
0.00000000
0.19213580
0.08733869
0.26417199
0.08121708
-0.02034556
0.27505196
0.30010539
0.00000000
0.25201754
0.13013759
0.00000000
0.00000000
0.08475472
0.00000000
0.00000000
0.19254548
0.13479190
0.11524435
0.29818177
0.14508852
0.28943794
0.13162793
0.19151036
0.23711883
0.00000000
0.17165645
0.00000000
0.23925452
0.00000000
0.00000000
0.30041443
0.02991114
0.38993608
0.06507368
0.16968314
0.00000000
0.27925852
0.09577936
-0.03568762
0.05170150
0.24565231
0.00000000
0.00000000
0.00000000
0.00000000
0.29808914
-0.07026280
0.39738893
0.07073745
0.11712756
0.00000000
0.31374295
-0.05680019
0.39066271
0.00000000
0.10510410
0.00000000
0.21276746
-0.05505843
0.28652046
0.01864459
0.00000000
0.00000000
0.29651066
-0.00271776
0.02758547
0.33563597
0.00626675
0.00000000
0.31912598
0.00000000
0.19826205
0.08372145
0.33709830
0.00000000
0.15433227
0.00000000
0.24441782
0.09280729
0.26398362
0.13491587
0.00000000
0.00000000
0.19968345
0.12339066
0.08640515
0.08197082
0.23257466
0.30541496
0.00000000
0.00000000
0.26899554
0.00000000
0.12658679
0.24183579
0.08615718
-0.02356660
0.36304445
0.19751426
0.00000000
0.00000000
0.00000000
0.11544931
0.30603998
0.00000000
0.24831355
0.04195636
-0.03588316
-0.05229541
-0.04921676
0.01151585
0.17269175
0.27636882
0.18076312
0.00000000
0.08388195
0.00000000
0.17313253
0.00000000
0.39320422
0.24838175
0.36021248
0.39616059
0.28386134
0.22063726
0.19971378
0.00000000
0.00000000
0.00000000
0.00000000
0.00000000
0.00000000
0.03209710
0.00000000
0.00000000
0.00000000
0.00000000
0.00000000
0.00000000
0.00000000
0.00000000
0.00000000
0.00000000
0.00000000
0.00000000
0.00000000
0.00000000
0.00000000
0.00000000
0.00000000
0.00000000
0.00000000
0.00000000
0.00000000
0.00000000
0.00000000
0.00000000
0.00000000
0.00000000
0.00000000
0.00000000
0.00000000
0.00000000
0.00000000
0.00000000
0.00000000
0.00000000
0.00000000
0.00000000
0.00000000
0.00000000
0.00000000
0.00000000
0.00000000
0.00000000
0.00000000
0.00000000
0.00000000
0.00000000
0.00000000
0.00000000
0.00000000
0.00000000
0.00000000
0.00000000
0.00000000
0.00000000
0.00000000
0.00000000
0.00000000
0.00000000
0.00000000
0.00000000
0.00000000
0.00000000
0.00000000
0.00000000
0.00000000
0.00000000
0.00000000
0.00000000
0.00000000
0.00000000
0.00000000
0.00000000
0.00000000
0.00000000
0.00000000
0.00000000
0.00000000
0.00000000
0.00000000
0.00000000
0.00000000
0.00000000
0.00000000
0.00000000
0.00000000
0.00000000
0.00000000
0.00000000
0.00000000
0.00000000
0.00000000
0.00000000
0.00000000
0.00000000
0.00000000
0.00000000
0.00000000
0.00000000
0.00000000
0.00000000
0.00000000
0.00000000
0.00000000
0.00000000
0.00000000
0.00000000
0.00000000
0.00000000
0.00000000
0.00000000
0.00000000
0.00000000
0.00000000
0.00000000
0.00000000
0.00000000
0.00000000
0.00000000
0.00000000
0.00000000
0.00000000
0.00000000
0.00000000
0.00000000
0.00000000
0.00000000
0.00000000
0.00000000
0.00000000
0.00000000
0.00000000
0.00000000
0.00000000
0.00000000
0.00000000
0.00000000
0.00000000
0.00000000
0.00000000
0.00000000
0.00000000
0.00000000
0.00000000
0.00000000
0.00000000
0.00000000
0.00000000
0.00000000
0.00000000
0.00000000
0.00000000
0.00000000
0.00000000
0.00000000
0.00000000
0.00000000
0.00000000
0.00000000
0.00000000
0.00000000
0.00000000
0.00000000
0.00000000
0.00000000
0.00000000
0.00000000
0.00000000
0.00000000
0.00000000
0.00000000
0.00000000
0.00000000
0.00000000
0.00000000
0.00000000
0.00000000
0.00000000
0.00000000
0.00000000
0.00000000
0.00000000
0.00000000
0.00000000
0.00000000
0.00000000
0.00000000
0.00000000
0.00000000
0.00000000
0.00000000
0.00000000
0.00000000
0.00000000
0.00000000
0.00000000
0.00000000
0.00000000
0.00000000
0.00000000
0.00000000
0.00000000
0.00000000
0.00000000
0.00000000
0.00000000
0.00000000
0.00000000
0.00000000
0.00000000
0.00000000
0.00000000
0.00000000
0.00000000
0.00000000
0.00000000
0.00000000
0.00000000
0.00000000
0.00000000
0.00000000
0.00000000
0.00000000
0.00000000
0.00000000
0.00000000
0.00000000
0.00000000
0.00000000
0.00000000
0.00000000
0.00000000
0.00000000
0.00000000
0.00000000
0.00000000
0.00000000
0.00000000
0.00000000
0.00000000
0.00000000
0.00000000
0.00000000
0.00000000
0.00000000
0.00000000
0.00000000
0.00000000
0.00000000


VECTORS normals double
-0.11806197 -0.09858044 -0.98810084
-0.15835580 -0.12897812 -0.97892190
-0.10997729 -0.15237016 -0.98218549
-0.07555726 -0.11971786 -0.98992865
-0.05504931 -0.16151500 -0.98533369
-0.02805144 -0.11519502 -0.99294674
-0.00351024 -0.16220899 -0.98675018
0.02399362 -0.11472502 -0.99310749
0.04943379 -0.16123962 -0.98567646
0.07987039 -0.11308300 -0.99037011
0.10051832 -0.16791657 -0.98066309
0.12809748 -0.13357089 -0.98272573
-0.12351720 -0.05113032 -0.99102432
-0.16937086 -0.07875430 -0.98240077
-0.06661926 -0.07128525 -0.99522876
-0.00966443 -0.06871893 -0.99758925
0.04343654 -0.06744396 -0.99677710
0.09594137 -0.05998361 -0.99357799
0.17687134 -0.12724465 -0.97597404
0.13601164 -0.09048505 -0.98656641
0.18905522 -0.07820798 -0.97884709
-0.12373169 0.00343564 -0.99230976
-0.16818289 -0.02445875 -0.98545233
-0.08502622 -0.02429714 -0.99608242
-0.03898976 -0.02273393 -0.99898096
0.01074840 -0.02054544 -0.99973114
0.06113846 -0.01789950 -0.99796879
0.11302596 -0.01070022 -0.99353442
0.15108116 -0.04261705 -0.98760228
-0.11496927 0.05588910 -0.99179558
-0.16459660 0.03142444 -0.98586027
-0.07396605 0.02262856 -0.99700400
-0.02453582 0.02740946 -0.99932313
0.02612823 0.02827569 -0.99925863
0.07658523 0.03084734 -0.99658574
0.12784638 0.03696588 -0.99110485
0.16753793 0.00651261 -0.98584412
-0.11252171 0.10695014 -0.98787678
-0.16008413 0.08365037 -0.98355259
-0.06164564 0.07569161 -0.99522389
-0.00619386 0.07509015 -0.99715751
0.04491072 0.07670294 -0.99604201
0.09474800 0.07923506 -0.99234300
0.14072155 0.08167110 -0.98667486
0.17862327 0.05705119 -0.98226213
-0.15516690 0.13546967 -0.97855567
-0.07250963 0.12733661 -0.98920561
-0.10668075 0.16566469 -0.98039504
-0.02711813 0.12268749 -0.99207479
0.02292304 0.12337093 -0.99209584
0.07335457 0.12517442 -0.98941926
0.17467183 0.11286141 -0.97813703
0.12447137 0.12542703 -0.98426365
-0.05138762 0.17106856 -0.98391812
-0.00004506 0.17024124 -0.98540241
0.05188317 0.17076648 -0.98394458
0.10486831 0.17039002 -0.97978053
-0.05332076 -0.34687429 -0.93639475
-0.10206412 -0.35853800 -0.92791886
-0.06674156 -0.39612245 -0.91576884
-0.00521214 -0.33753113 -0.94129994
-0.01831339 -0.38662458 -0.92205534
0.04688120 -0.33645204 -0.94053292
0.02394767 -0.37526997 -0.92660615
0.06878655 -0.38317003 -0.92111299
-0.17464632 -0.28788388 -0.94160583
-0.22491871 -0.30072432 -0.92680983
-0.18767867 -0.33657856 -0.92276302
-0.12322523 -0.27504500 -0.95350186
-0.13731391 -0.32355960 -0.93619126
-0.08630312 -0.30776042 -0.94754171
-0.03634616 -0.29649314 -0.95434311
0.01776034 -0.29388537 -0.95567565
0.09743917 -0.34060263 -0.93514462
0.07220827 -0.29475416 -0.95284099
0.12481457 -0.29781079 -0.94643017
0.14821118 -0.34373605 -0.92729660
0.17634706 -0.30061959 -0.93729909
0.19803412 -0.34819388 -0.91626607
0.22502870 -0.30620400 -0.92498713
-0.20036083 -0.20237413 -0.95859285
-0.26235868 -0.26341522 -0.92832125
-0.21359924 -0.25192856 -0.94387889
-0.16404844 -0.23908923 -0.95703942
-0.11750972 -0.23031147 -0.96599591
-0.06950406 -0.25350141 -0.96483481
-0.01123836 -0.25179842 -0.96771445
0.04427540 -0.25151516 -0.96684012
0.09989064 -0.25313639 -0.96225975
0.15483082 -0.25545481 -0.95434284
0.20877141 -0.25770492 -0.94339953
0.25834626 -0.26649282 -0.92856814
0.24552840 -0.21390080 -0.94549577
0.29757046 -0.23984373 -0.92408160
-0.28544368 -0.17519912 -0.94224581
-0.33411458 -0.18926560 -0.92333417
-0.29827568 -0.22591915 -0.92735762
-0.24954661 -0.21308752 -0.94462702
-0.19119448 -0.15627415 -0.96903202
-0.14737632 -0.18691293 -0.97125886
-0.08782164 -0.19952422 -0.97594951
-0.03514718 -0.20874239 -0.97733888
0.01931546 -0.20712571 -0.97812364
0.07295141 -0.20931179 -0.97512392
0.12940845 -0.21233235 -0.96859095
0.18704515 -0.21450730 -0.95864526
0.21052897 -0.17021246 -0.96265532
0.29667525 -0.19098788 -0.93568554
-0.26954911 -0.12380952 -0.95499449
-0.32035691 -0.13900901 -0.93704213
-0.23680060 -0.16189809 -0.95797416
-0.21512505 -0.10891960 -0.97049355
0.15692862 -0.17280538 -0.97237426
0.22590697 -0.11897758 -0.96685592
0.25921993 -0.15862159 -0.95270364
0.34373055 -0.16604222 -0.92427230
0.30630195 -0.13775973 -0.94191368
0.34935461 -0.11679600 -0.92968277
-0.34765996 -0.05464739 -0.93602682
-0.39578188 -0.06691978 -0.91590308
-0.35809182 -0.10382411 -0.92789590
-0.30839984 -0.08929612 -0.94705636
-0.25829865 -0.07307318 -0.96329752
-0.21297602 -0.05101843 -0.97572452
0.23859669 -0.06797373 -0.96873690
0.27416337 -0.10423638 -0.95601738
0.28987906 -0.05311961 -0.95558801
0.32421189 -0.08450024 -0.94220293
-0.33803203 -0.00574375 -0.94111708
-0.38652879 -0.01754019 -0.92211053
-0.29854912 -0.03906676 -0.95359436
-0.25330792 -0.01795872 -0.96721899
-0.20934294 0.00575544 -0.97782535
0.20364829 -0.02713086 -0.97866812
0.25293616 -0.01873028 -0.96730165
0.30636972 -0.00708556 -0.95188623
0.34490334 -0.03805295 -0.93786655
-0.33457590 0.04616858 -0.94123718
-0.37474964 0.02493168 -0.92679076
-0.29337687 0.01488647 -0.95588096
-0.25004081 0.03829531 -0.96747768
-0.20658424 0.06187667 -0.97647029
0.22092427 0.02804056 -0.97488779
0.26994705 0.02277202 -0.96260585
0.30969139 0.04522879 -0.94976081
0.35153479 0.01526809 -0.93605031
-0.38013659 0.07008691 -0.92227111
-0.29117989 0.06947469 -0.95414231
-0.33536481 0.09692622 -0.93708898
-0.24765489 0.09439840 -0.96423856
-0.20273959 0.11606672 -0.97232977
0.21810984 0.08864132 -0.97189033
0.26139324 0.06868431 -0.96278556
0.30250929 0.09669187 -0.94822930
0.34945499 0.07077358 -0.93427636
-0.29067135 0.12251533 -0.94894687
-0.33405917 0.14830408 -0.93081167
-0.24590606 0.14904410 -0.95776619
-0.20082201 0.16798606 -0.96511720
-0.15489301 0.18088947 -0.97122971
0.15946854 0.16370143 -0.97353563
0.20982300 0.14641360 -0.96671473
0.25551925 0.12220676 -0.95904923
0.29632387 0.14845269 -0.94347971
0.34360075 0.12326871 -0.93099052
-0.28788910 0.17510157 -0.94151968
-0.33478666 0.19812755 -0.92122927
-0.23974274 0.20715069 -0.94847879
-0.18484828 0.21704883 -0.95849931
-0.12892942 0.21805740 -0.96738213
-0.07766182 0.21491951 -0.97353903
-0.02404377 0.21646722 -0.97599377
0.02876428 0.21607450 -0.97595309
0.08246403 0.21501325 -0.97312332
0.13790576 0.21002263 -0.96792174
0.19589195 0.20176127 -0.95964511
0.24804357 0.17575368 -0.95267257
0.33926513 0.17423627 -0.92441381
0.29246010 0.19827432 -0.93549686
-0.29095032 0.22397557 -0.93015206
-0.20839157 0.25845141 -0.94327929
-0.25552701 0.26052129 -0.93103953
-0.15519860 0.26043837 -0.95293507
-0.10097550 0.26156171 -0.95989032
-0.04867464 0.26064551 -0.96420677
0.00455496 0.26125353 -0.96525947
0.05754048 0.26012221 -0.96385970
0.11088436 0.25630526 -0.96021470
0.16276576 0.25076677 -0.95426586
0.20771984 0.25049248 -0.94557178
0.28734180 0.24804205 -0.92515395
0.24603911 0.22578890 -0.94259436
-0.23012260 0.30562162 -0.92392587
-0.17973789 0.30381285 -0.93562388
-0.12681820 0.30404850 -0.94417777
-0.15102490 0.34762681 -0.92539023
-0.07235471 0.30533907 -0.94949084
-0.01924042 0.30537293 -0.95203843
0.03387100 0.30510558 -0.95171600
0.08727315 0.30227276 -0.94921788
0.13977161 0.29846180 -0.94413159
0.24264457 0.28367724 -0.92771269
0.19021460 0.29507525 -0.93634876
-0.09821165 0.34647592 -0.93290348
-0.04293465 0.34869240 -0.93625329
0.01037547 0.34923077 -0.93697931
0.06411210 0.34694956 -0.93568993
0.11720380 0.34412163 -0.93158122
0.16914094 0.34108205 -0.92469150
-0.04137939 -0.47701457 -0.87792075
-0.09137725 -0.48866353 -0.86767399
-0.05469140 -0.52093329 -0.85184350
0.00739685 -0.46767251 -0.88387087
-0.00596573 -0.51375955 -0.85791348
0.05747639 -0.46596677 -0.88293342
0.03542396 -0.50405142 -0.86294688
0.10656163 -0.47168040 -0.87530693
0.07800019 -0.51186510 -0.85551744
0.12675771 -0.51530354 -0.84758170
-0.16436070 -0.42040472 -0.89232585
-0.21242298 -0.43270137 -0.87615410
-0.17560284 -0.46759673 -0.86632381
-0.11545579 -0.40766765 -0.90580188
-0.12725793 -0.45472413 -0.88149384
-0.07742495 -0.44270628 -0.89331771
-0.02665316 -0.43140643 -0.90176389
0.02855903 -0.42196704 -0.90616124
0.08507403 -0.42693285 -0.90027260
0.15627428 -0.47487407 -0.86606753
0.13621938 -0.43133194 -0.89185034
0.18699538 -0.43387523 -0.88135408
0.20608253 -0.47559913 -0.85518153
0.23853648 -0.43494611 -0.86828695
-0.28536046 -0.36073850 -0.88793983
-0.33273045 -0.37197153 -0.86656080
-0.29627587 -0.40809861 -0.86352541
-0.23707976 -0.34911939 -0.90659188
-0.24887152 -0.39706312 -0.88340469
-0.20061693 -0.38494818 -0.90087055
-0.15152644 -0.37231558 -0.91565323
0.11883104 -0.38640937 -0.91464036
0.16852214 -0.38995115 -0.90528359
0.21906113 -0.39332671 -0.89292011
0.27128087 -0.39357955 -0.87835177
0.24834467 -0.35272313 -0.90217034
0.30301350 -0.34780951 -0.88724933
0.31859333 -0.39872953 -0.85994945
0.35069712 -0.36272921 -0.86338812
-0.35839288 -0.28765656 -0.88814878
-0.40504513 -0.29942474 -0.86387688
-0.36899931 -0.33579628 -0.86664893
-0.32194567 -0.32423546 -0.88950680
-0.27389434 -0.31250555 -0.90957252
0.26948769 -0.31309750 -0.91068454
0.30561261 -0.29097063 -0.90660743
0.34711925 -0.31401909 -0.88368560
-0.34662342 -0.23889022 -0.90707423
-0.39440844 -0.25103458 -0.88398169
-0.31064047 -0.27562860 -0.90968752
0.34559725 -0.26338648 -0.90066093
0.39052178 -0.28292417 -0.87604033
0.38894525 -0.23629683 -0.89044113
0.43604616 -0.25543399 -0.86291206
-0.41785616 -0.16609491 -0.89320138
-0.46537074 -0.17658688 -0.86732183
-0.43005460 -0.21410806 -0.87704662
-0.38241463 -0.20253420 -0.90152035
0.34243398 -0.21522227 -0.91455910
0.38633602 -0.18759442 -0.90307963
0.43122799 -0.21122711 -0.87716904
0.42595605 -0.16043262 -0.89040598
0.46376245 -0.18308816 -0.86683512
-0.40596473 -0.11690145 -0.90638110
-0.45249492 -0.12903901 -0.88238159
-0.36973065 -0.15329125 -0.91640659
0.38631171 -0.13433186 -0.91253395
0.42466743 -0.10829332 -0.89884933
0.46641666 -0.13688191 -0.87391009
-0.47301908 -0.04230993 -0.88003569
-0.51253961 -0.05973962 -0.85658294
-0.48629794 -0.09372135 -0.86875234
-0.44055334 -0.07837325 -0.89429883
0.38077636 -0.07556156 -0.92157464
0.42733981 -0.05879526 -0.90217726
0.46923704 -0.08821153 -0.87865541
-0.46676034 0.01006621 -0.88432655
-0.50971388 -0.01234847 -0.86025536
-0.43017878 -0.02497040 -0.90239830
0.39305894 -0.01546605 -0.91938320
0.43909050 -0.01529918 -0.89831257
0.47485955 -0.04089762 -0.87911080
-0.46401078 0.06158913 -0.88368590
-0.50692248 0.03779025 -0.86116287
-0.42111145 0.03117365 -0.90647303
0.39164602 0.04387451 -0.91906933
0.43284291 0.02825067 -0.90102659
0.47763490 0.00940418 -0.87850809
-0.46390204 0.11415128 -0.87850121
-0.50517687 0.08825776 -0.85849106
-0.42270969 0.08832265 -0.90195101
-0.37943403 0.12042641 -0.91734797
0.38902768 0.09888118 -0.91590391
0.43140926 0.07892458 -0.89869737
0.47475792 0.05839250 -0.87817722
-0.50411817 0.13976255 -0.85225072
-0.42216518 0.14142418 -0.89541932
-0.46302953 0.16656282 -0.87055183
-0.37899132 0.17066158 -0.90952746
0.38477520 0.15118119 -0.91054505
0.42895236 0.13024297 -0.89388850
0.47218782 0.10872489 -0.87476715
-0.42163768 0.19376125 -0.88582066
-0.46094396 0.21938691 -0.85988374
-0.37953585 0.22097765 -0.89839936
0.33438582 0.22468082 -0.91526207
0.38008966 0.20259217 -0.90249004
0.42465876 0.18124698 -0.88702563
0.46854039 0.15948670 -0.86892687
-0.41979277 0.24662196 -0.87347103
-0.33733724 0.24847792 -0.90799907
-0.37719483 0.27246513 -0.88514790
-0.29978014 0.27024287 -0.91493205
0.28817058 0.29281619 -0.91171070
0.33024943 0.27380413 -0.90330870
0.37509884 0.25324561 -0.89172166
0.46337309 0.21021174 -0.86086956
0.41944752 0.23210198 -0.87760609
-0.33283737 0.30504554 -0.89228163
-0.37785178 0.31794887 -0.86956113
-0.27893129 0.30927401 -0.90914626
-0.25303964 0.35163409 -0.90129041
-0.20254247 0.34891872 -0.91500397
0.22048516 0.33481932 -0.91612353
0.26816803 0.33277995 -0.90407047
0.31894136 0.32373635 -0.89077000
0.41119801 0.28349253 -0.86634184
0.36580422 0.30474772 -0.87938393
-0.35285650 0.35437221 -0.86597496
-0.30441503 0.35100316 -0.88551018
-0.22500781 0.39331309 -0.89144619
-0.27587617 0.39433824 -0.87657840
-0.17404329 0.39142762 -0.90360021
-0.12235905 0.39024691 -0.91254349
-0.07118254 0.38761334 -0.91906961
-0.01386862 0.39433045 -0.91886406
0.04175494 0.39044611 -0.91967840
0.09487961 0.38817602 -0.91668819
0.14768722 0.38550465 -0.91080989
0.20010695 0.38117947 -0.90258485
0.24986524 0.37769769 -0.89157827
0.35144233 0.35511850 -0.86624427
0.30068398 0.36952982 -0.87922515
-0.24795735 0.43570011 -0.86526445
-0.14597607 0.43341641 -0.88929253
-0.19694103 0.43449242 -0.87888029
-0.09653800 0.43282075 -0.89629605
-0.05332152 0.42604348 -0.90312999
-0.01915248 0.44264099 -0.89649436
0.02420791 0.43459518 -0.90030051
0.07432408 0.43155138 -0.89902132
0.12604443 0.42861609 -0.89465135
0.17889316 0.42493153 -0.88737277
0.28218328 0.41492531 -0.86499109
0.23094315 0.42194723 -0.87671306
-0.16538839 0.47434229 -0.86466529
-0.11346821 0.47542846 -0.87240630
-0.05874681 0.47353497 -0.87881366
-0.00196200 0.47977676 -0.87738841
0.04915442 0.47513189 -0.87854057
0.10147889 0.47171870 -0.87589012
0.15437367 0.46713109 -0.87060744
0.20823816 0.46338748 -0.86134134
-0.14735141 -0.54785001 -0.82349738
-0.19693410 -0.55746692 -0.80650331
-0.15842112 -0.58797786 -0.79321169
-0.10318347 -0.53434745 -0.83894337
-0.10419017 -0.58287644 -0.80585325
-0.06504497 -0.55902335 -0.82659667
-0.04480124 -0.59246203 -0.80435166
-0.01659795 -0.55521846 -0.83153892
0.00990043 -0.59069786 -0.80683209
0.03773226 -0.54890846 -0.83503041
0.06209162 -0.58999412 -0.80501650
0.09267749 -0.55346474 -0.82770023
0.11575525 -0.59180482 -0.79772663
0.14503582 -0.55574527 -0.81860357
0.17030091 -0.59291034 -0.78705459
0.19587150 -0.55772365 -0.80658458
-0.26998787 -0.48959858 -0.82909576
-0.31643186 -0.49789161 -0.80744958
-0.28102499 -0.53383292 -0.79752578
-0.22255741 -0.47951595 -0.84884195
-0.23374855 -0.52400146 -0.81901409
-0.18564175 -0.51436464 -0.83723722
-0.13946095 -0.50136068 -0.85392512
0.17641007 -0.51690923 -0.83766600
0.24067639 -0.55431299 -0.79675089
0.22484283 -0.51707206 -0.82588267
0.25482694 -0.47825896 -0.84043536
0.27246382 -0.52152866 -0.80856127
0.30121371 -0.48360847 -0.82182306
-0.34334655 -0.41836482 -0.84088288
-0.38953314 -0.42877507 -0.81511709
-0.35405919 -0.46301363 -0.81256413
-0.30698406 -0.45385883 -0.83652433
-0.25970677 -0.44421208 -0.85745438
0.28733562 -0.43873073 -0.85144206
0.34326220 -0.48489106 -0.80439525
0.33444296 -0.44484429 -0.83081975
0.36567376 -0.41021927 -0.83546565
0.38505656 -0.45501106 -0.80292987
0.41341213 -0.40854481 -0.81374539
-0.41498895 -0.34697523 -0.84106620
-0.45971233 -0.35665418 -0.81330337
-0.42454837 -0.39375958 -0.81529876
-0.37931375 -0.38290372 -0.84232169
0.39241581 -0.37373687 -0.84043476
0.45907743 -0.39645334 -0.79502998
0.43566955 -0.35606120 -0.82668765
0.48529170 -0.35180030 -0.80045520
-0.48579011 -0.27433106 -0.82990990
-0.53064131 -0.28389298 -0.79863920
-0.49545790 -0.32069316 -0.80726536
-0.45063019 -0.31034212 -0.83703058
0.39217177 -0.33063571 -0.85841792
0.43291068 -0.30350047 -0.84880846
0.46986427 -0.31730047 -0.82374024
-0.47532218 -0.22595521 -0.85030175
-0.51920281 -0.23793341 -0.82086304
-0.44065793 -0.26274397 -0.85836251
0.47806599 -0.27315574 -0.83476874
0.51187960 -0.30230089 -0.80411034
0.48364136 -0.22400740 -0.84611567
0.52328098 -0.25358854 -0.81355385
-0.54218608 -0.15211150 -0.82637542
-0.57910027 -0.16874673 -0.79760104
-0.55245603 -0.20222264 -0.80863980
-0.50951191 -0.18902721 -0.83944406
0.50302541 -0.17065840 -0.84725507
0.53227293 -0.20430181 -0.82155115
-0.53769666 -0.09910871 -0.83729312
-0.57913925 -0.12222259 -0.80601449
-0.50008102 -0.13880613 -0.85478175
0.50872942 -0.11911407 -0.85264660
0.54408355 -0.15076272 -0.82537488
0.55016130 -0.09814301 -0.82927106
0.58403422 -0.12760849 -0.80163589
-0.54882219 -0.04245183 -0.83486049
-0.58158861 -0.07233315 -0.81026082
0.51344851 -0.06907366 -0.85533587
0.55421976 -0.04555489 -0.83112286
0.58945794 -0.07384009 -0.80441717
-0.54844295 0.01017972 -0.83612601
-0.58651153 -0.01871709 -0.80972458
0.51698685 -0.01753045 -0.85581381
0.55629082 0.00735822 -0.83095510
0.59274382 -0.02038425 -0.80513306
-0.54661717 0.06138899 -0.83512937
-0.58631684 0.03371969 -0.80937973
0.51747253 0.03454213 -0.85500235
0.55580663 0.05989165 -0.82915136
0.59387197 0.03279635 -0.80389084
-0.54479021 0.11254334 -0.83098593
-0.58470350 0.08531099 -0.80674894
0.51476942 0.08527630 -0.85307702
0.55294765 0.11138788 -0.82573703
0.59273960 0.08529340 -0.80086503
-0.54252249 0.16413370 -0.82385040
-0.58238928 0.13671476 -0.80133126
-0.50182509 0.19177217 -0.84344236
0.51138876 0.13618855 -0.84848937
0.58935594 0.13700300 -0.79617194
0.54869646 0.16268029 -0.82004105
-0.57914993 0.18804156 -0.79323750
-0.49869852 0.24414604 -0.83168052
-0.53898722 0.21578861 -0.81420394
0.50661136 0.18715301 -0.84161671
0.54248634 0.21395125 -0.81236287
-0.45877352 0.27222069 -0.84582667
-0.53411082 0.26790125 -0.80184447
-0.41790912 0.29823359 -0.85814259
0.45588126 0.26129016 -0.85082297
0.49971575 0.23823606 -0.83278313
0.53412378 0.26511295 -0.80276205
-0.49467006 0.29729978 -0.81664825
-0.45332218 0.32539494 -0.82982958
-0.49237031 0.34766040 -0.79793717
0.39934950 0.33447571 -0.85360762
0.44565104 0.31211973 -0.83903303
0.49055186 0.28919850 -0.82202379
0.47925776 0.33947255 -0.80936419
-0.40725613 0.35231958 -0.84262290
-0.45170199 0.37439281 -0.80981191
-0.37191055 0.39543517 -0.83982949
-0.32371144 0.39610902 -0.85924883
0.33317331 0.40230902 -0.85272680
0.38423199 0.38368477 -0.83973316
0.46604780 0.38845425 -0.79492311
0.43291286 0.36175804 -0.82566190
-0.41469616 0.39770122 -0.81845027
-0.34411981 0.43866263 -0.83015459
-0.39174599 0.43738779 -0.80946094
-0.29698695 0.43873804 -0.84812009
-0.26818544 0.47841895 -0.83617694
0.26241550 0.45935710 -0.84860424
0.31394332 0.44871537 -0.83671626
0.41794742 0.40925545 -0.81106716
0.36630305 0.43009883 -0.82512852
-0.36178530 0.47951677 -0.79948425
-0.31582300 0.48279489 -0.81680165
-0.21802231 0.47548062 -0.85228191
-0.28506263 0.52160623 -0.80415561
-0.18686576 0.51285717 -0.83788944
-0.13552962 0.51513776 -0.84632429
-0.08344005 0.51553079 -0.85279879
-0.03104660 0.51679862 -0.85554386
0.02350691 0.51762506 -0.85528458
0.07592076 0.51381122 -0.85453734
0.12853838 0.50962972 -0.85073817
0.18122422 0.50373138 -0.84463748
0.23655527 0.49905455 -0.83365830
0.34808970 0.47497840 -0.80822588
0.29366117 0.49649884 -0.81685495
-0.23837143 0.51642622 -0.82248588
-0.20575668 0.54780839 -0.81090699
-0.10806093 0.55468522 -0.82501342
-0.15948241 0.55336605 -0.81752760
-0.05631411 0.55550477 -0.82960422
-0.00371484 0.55569300 -0.83137927
0.04972498 0.55489835 -0.83043076
0.10180798 0.55119314 -0.82814326
0.15329816 0.54639240 -0.82338024
0.12665582 0.58781415 -0.79901991
0.20350378 0.53858398 -0.81762675
0.25502726 0.53575786 -0.80493764
-0.13639116 0.59093442 -0.79510626
-0.08273759 0.59285286 -0.80104930
-0.02990907 0.59358447 -0.80421572
0.02279614 0.59306476 -0.80483199
0.07551048 0.59145029 -0.80279805
-0.20914627 -0.59849751 -0.77334247
-0.12628708 -0.62204580 -0.77272932
-0.07504932 -0.62332775 -0.77835090
-0.02000709 -0.62726039 -0.77855258
0.03286035 -0.62740464 -0.77799975
0.08474432 -0.62741507 -0.77405990
0.13739412 -0.62779227 -0.76615907
-0.32630830 -0.54059673 -0.77542122
-0.29067781 -0.57764053 -0.76278295
-0.24530983 -0.56660619 -0.78662603
0.22818232 -0.59459328 -0.77096800
0.28033854 -0.56558935 -0.77557655
0.31991794 -0.52860840 -0.78627328
-0.40106483 -0.47261663 -0.78471684
-0.36237196 -0.50541087 -0.78310052
0.37255939 -0.50604378 -0.77789408
0.41621543 -0.48960974 -0.76618994
-0.46738720 -0.40287443 -0.78691893
-0.43335948 -0.44067819 -0.78613122
0.43567753 -0.44417212 -0.78287689
-0.50233372 -0.36764577 -0.78262214
0.50711720 -0.38614776 -0.77053362
-0.53785821 -0.33050050 -0.77555010
-0.57285811 -0.29412759 -0.76506376
0.52995260 -0.33964621 -0.77703970
0.55792900 -0.28655406 -0.77884659
-0.60035106 -0.20815872 -0.77217133
-0.56338270 -0.24646428 -0.78857802
0.56630315 -0.23361474 -0.79039540
-0.61432833 -0.15274956 -0.77412420
0.57498310 -0.18171997 -0.79772946
0.60764370 -0.20833790 -0.76639706
0.61528734 -0.15579439 -0.77275455
-0.61775874 -0.10073230 -0.77988919
0.62241265 -0.10178120 -0.77604322
-0.62052081 -0.04874494 -0.78267353
0.62712534 -0.04804616 -0.77743512
-0.62322835 0.00492169 -0.78202442
0.62961867 0.00539178 -0.77688561
-0.62285439 0.05761807 -0.78021316
0.63008446 0.05820913 -0.77434183
-0.62100334 0.10961279 -0.77610559
0.62821398 0.11036190 -0.77017365
-0.61804421 0.16122433 -0.76943361
0.58397923 0.18841001 -0.78960112
0.62399621 0.16190362 -0.76447102
-0.57418587 0.23904654 -0.78305003
0.57644600 0.23962551 -0.78121036
-0.56890115 0.28971081 -0.76968768
0.56687825 0.29059419 -0.77084633
-0.53176544 0.31952049 -0.78430362
-0.52949833 0.36916422 -0.76377306
0.52376109 0.31591659 -0.79112011
-0.48828672 0.39733839 -0.77698023
0.51156093 0.36602934 -0.77738532
-0.44429205 0.42753445 -0.78728576
0.40134267 0.45373550 -0.79564324
0.45132015 0.43554692 -0.77885108
-0.41124833 0.47306440 -0.77915652
-0.38493345 0.50966104 -0.76946206
-0.33661500 0.52630932 -0.78082575
0.33734628 0.51865480 -0.78561740
0.38663826 0.49548270 -0.77782244
-0.29327749 0.56169494 -0.77361948
-0.24628717 0.56044473 -0.79072393
-0.19451876 0.58737146 -0.78559355
0.17619456 0.58250853 -0.79349813
0.21949649 0.57147758 -0.79071782
0.25670349 0.57915264 -0.77374772
0.29904005 0.54444649 -0.78367919
-0.15789486 0.62494239 -0.76453661
-0.10600434 0.62817769 -0.77081507
-0.05410038 0.63004255 -0.77467382
-0.00200403 0.63014829 -0.77647223
0.05055156 0.62876910 -0.77594713
0.10373075 0.62648962 -0.77249640
0.15620205 0.62206441 -0.76722669


VECTORS u double
0.00000951 0.00000794 0.00007955
0.00001238 0.00001008 0.00007651
0.00000844 0.00001169 0.00007538
0.00000657 0.00001041 0.00008606
0.00000420 0.00001231 0.00007510
0.00000233 0.00000958 0.00008257
0.00000028 0.00001293 0.00007866
-0.00000201 0.00000960 0.00008310
-0.00000381 0.00001244 0.00007604
-0.00000671 0.00000949 0.00008314
-0.00000786 0.00001314 0.00007673
-0.00000993 0.00001035 0.00007618
0.00001025 0.00000424 0.00008225
0.00001297 0.00000603 0.00007521
0.00000561 0.00000600 0.00008379
0.00000085 0.00000602 0.00008733
-0.00000390 0.00000605 0.00008939
-0.00000808 0.00000505 0.00008366
-0.00001280 0.00000921 0.00007063
-0.00001066 0.00000709 0.00007732
-0.00001464 0.00000606 0.00007582
0.00001053 -0.00000029 0.00008448
0.00001308 0.00000190 0.00007662
0.00000720 0.00000206 0.00008434
0.00000342 0.00000199 0.00008758
-0.00000098 0.00000187 0.00009111
-0.00000542 0.00000159 0.00008851
-0.00000952 0.00000090 0.00008369
-0.00001166 0.00000329 0.00007623
0.00000977 -0.00000475 0.00008432
0.00001246 -0.00000238 0.00007464
0.00000644 -0.00000197 0.00008677
0.00000219 -0.00000245 0.00008938
-0.00000230 -0.00000249 0.00008793
-0.00000651 -0.00000262 0.00008476
-0.00001039 -0.00000300 0.00008053
-0.00001334 -0.00000052 0.00007848
0.00000892 -0.00000848 0.00007834
0.00001250 -0.00000653 0.00007680
0.00000527 -0.00000647 0.00008513
0.00000053 -0.00000640 0.00008504
-0.00000397 -0.00000678 0.00008804
-0.00000786 -0.00000657 0.00008229
-0.00001110 -0.00000644 0.00007783
-0.00001380 -0.00000441 0.00007589
0.00001203 -0.00001050 0.00007587
0.00000621 -0.00001091 0.00008473
0.00000826 -0.00001282 0.00007589
0.00000223 -0.00001010 0.00008166
-0.00000189 -0.00001018 0.00008186
-0.00000626 -0.00001069 0.00008447
-0.00001278 -0.00000826 0.00007157
-0.00000954 -0.00000962 0.00007548
0.00000392 -0.00001304 0.00007499
0.00000000 -0.00001307 0.00007565
-0.00000395 -0.00001301 0.00007495
-0.00000816 -0.00001326 0.00007625
0.00000195 0.00001270 0.00003429
0.00000269 0.00000947 0.00002450
0.00000102 0.00000608 0.00001406
0.00000021 0.00001386 0.00003864
0.00000038 0.00000804 0.00001917
-0.00000198 0.00001418 0.00003964
-0.00000060 0.00000943 0.00002329
-0.00000145 0.00000808 0.00001943
0.00000747 0.00001231 0.00004026
0.00000594 0.00000794 0.00002448
0.00000439 0.00000786 0.00002156
0.00000622 0.00001389 0.00004814
0.00000483 0.00001138 0.00003293
0.00000418 0.00001492 0.00004593
0.00000192 0.00001568 0.00005047
-0.00000098 0.00001622 0.00005273
-0.00000342 0.00001195 0.00003282
-0.00000371 0.00001512 0.00004889
-0.00000570 0.00001359 0.00004318
-0.00000384 0.00000891 0.00002402
-0.00000682 0.00001163 0.00003626
-0.00000255 0.00000448 0.00001178
-0.00000536 0.00000729 0.00002202
0.00001155 0.00001167 0.00005528
0.00000695 0.00000698 0.00002459
0.00000966 0.00001140 0.00004270
0.00000899 0.00001310 0.00005243
0.00000767 0.00001504 0.00006308
0.00000459 0.00001673 0.00006368
0.00000075 0.00001670 0.00006418
-0.00000282 0.00001605 0.00006169
-0.00000603 0.00001528 0.00005809
-0.00000849 0.00001401 0.00005233
-0.00000914 0.00001128 0.00004131
-0.00000701 0.00000723 0.00002519
-0.00001103 0.00000961 0.00004246
-0.00000701 0.00000565 0.00002177
0.00001192 0.00000732 0.00003936
0.00000790 0.00000448 0.00002184
0.00000757 0.00000573 0.00002354
0.00001121 0.00000957 0.00004244
0.00001232 0.00001007 0.00006243
0.00000973 0.00001235 0.00006416
0.00000633 0.00001438 0.00007034
0.00000265 0.00001575 0.00007373
-0.00000143 0.00001535 0.00007250
-0.00000505 0.00001450 0.00006754
-0.00000870 0.00001427 0.00006509
-0.00001049 0.00001203 0.00005376
-0.00001257 0.00001016 0.00005748
-0.00001061 0.00000683 0.00003347
0.00001447 0.00000665 0.00005126
0.00001218 0.00000528 0.00003562
0.00001325 0.00000906 0.00005361
0.00001434 0.00000726 0.00006470
-0.00001048 0.00001154 0.00006491
-0.00001488 0.00000784 0.00006369
-0.00001341 0.00000821 0.00004929
-0.00000795 0.00000384 0.00002137
-0.00001332 0.00000599 0.00004096
-0.00001032 0.00000345 0.00002745
0.00001251 0.00000197 0.00003367
0.00000526 0.00000089 0.00001216
0.00000945 0.00000274 0.00002450
0.00001413 0.00000409 0.00004339
0.00001666 0.00000471 0.00006212
0.00001530 0.00000366 0.00007008
-0.00001601 0.00000456 0.00006502
-0.00001472 0.00000559 0.00005131
-0.00001584 0.00000290 0.00005220
-0.00001390 0.00000362 0.00004039
0.00001454 0.00000025 0.00004048
0.00000838 0.00000038 0.00001999
0.00001522 0.00000199 0.00004863
0.00001665 0.00000118 0.00006356
0.00001585 -0.00000044 0.00007405
-0.00001522 0.00000203 0.00007313
-0.00001631 0.00000121 0.00006239
-0.00001590 0.00000037 0.00004939
-0.00001260 0.00000139 0.00003427
0.00001393 -0.00000192 0.00003919
0.00000973 -0.00000065 0.00002407
0.00001624 -0.00000082 0.00005290
0.00001624 -0.00000249 0.00006285
0.00001514 -0.00000453 0.00007155
-0.00001543 -0.00000196 0.00006807
-0.00001661 -0.00000140 0.00005923
-0.00001500 -0.00000219 0.00004599
-0.00001285 -0.00000056 0.00003421
0.00000839 -0.00000155 0.00002036
0.00001555 -0.00000371 0.00005095
0.00001215 -0.00000351 0.00003394
0.00001539 -0.00000587 0.00005992
0.00001387 -0.00000794 0.00006652
-0.00001488 -0.00000605 0.00006629
-0.00001677 -0.00000441 0.00006177
-0.00001466 -0.00000468 0.00004594
-0.00001197 -0.00000242 0.00003201
0.00001436 -0.00000605 0.00004688
0.00001038 -0.00000461 0.00002893
0.00001397 -0.00000847 0.00005441
0.00001237 -0.00001035 0.00005946
0.00001024 -0.00001196 0.00006422
-0.00001106 -0.00001135 0.00006750
-0.00001340 -0.00000935 0.00006176
-0.00001470 -0.00000703 0.00005518
-0.00001316 -0.00000659 0.00004191
-0.00001056 -0.00000379 0.00002862
0.00001227 -0.00000746 0.00004012
0.00000706 -0.00000418 0.00001941
0.00001150 -0.00000994 0.00004550
0.00001030 -0.00001210 0.00005342
0.00000857 -0.00001450 0.00006431
0.00000531 -0.00001469 0.00006655
0.00000175 -0.00001577 0.00007112
-0.00000210 -0.00001577 0.00007124
-0.00000550 -0.00001435 0.00006494
-0.00000893 -0.00001360 0.00006267
-0.00001152 -0.00001187 0.00005644
-0.00001255 -0.00000889 0.00004820
-0.00000788 -0.00000405 0.00002147
-0.00001030 -0.00000698 0.00003294
0.00000858 -0.00000661 0.00002743
0.00000917 -0.00001137 0.00004150
0.00000759 -0.00000774 0.00002767
0.00000836 -0.00001403 0.00005135
0.00000583 -0.00001509 0.00005538
0.00000306 -0.00001640 0.00006068
-0.00000031 -0.00001752 0.00006472
-0.00000368 -0.00001666 0.00006172
-0.00000651 -0.00001504 0.00005636
-0.00000864 -0.00001331 0.00005067
-0.00000997 -0.00001203 0.00004540
-0.00000738 -0.00000637 0.00002376
-0.00001052 -0.00000965 0.00004029
0.00000524 -0.00000696 0.00002104
0.00000659 -0.00001114 0.00003431
0.00000559 -0.00001340 0.00004160
0.00000365 -0.00000839 0.00002234
0.00000348 -0.00001467 0.00004562
0.00000100 -0.00001593 0.00004965
-0.00000173 -0.00001560 0.00004865
-0.00000430 -0.00001488 0.00004673
-0.00000609 -0.00001300 0.00004111
-0.00000674 -0.00000788 0.00002576
-0.00000685 -0.00001063 0.00003374
0.00000315 -0.00001112 0.00002994
0.00000157 -0.00001277 0.00003430
-0.00000038 -0.00001268 0.00003403
-0.00000224 -0.00001213 0.00003272
-0.00000371 -0.00001090 0.00002951
-0.00000391 -0.00000789 0.00002140
0.00000009 0.00000102 0.00000187
0.00000049 0.00000261 0.00000464
0.00000040 0.00000382 0.00000625
-0.00000001 0.00000065 0.00000124
0.00000004 0.00000355 0.00000593
-0.00000001 0.00000011 0.00000021
-0.00000022 0.00000319 0.00000547
-0.00000040 0.00000177 0.00000329
-0.00000055 0.00000362 0.00000606
-0.00000099 0.00000403 0.00000662
-0.00000097 -0.00000248 -0.00000526
0.00000079 0.00000162 0.00000327
0.00000095 0.00000253 0.00000469
0.00000010 0.00000034 0.00000076
0.00000032 0.00000113 0.00000219
-0.00000032 -0.00000183 -0.00000369
-0.00000013 -0.00000218 -0.00000455
0.00000002 -0.00000023 -0.00000050
0.00000033 -0.00000167 -0.00000352
-0.00000089 0.00000269 0.00000491
0.00000047 -0.00000147 -0.00000305
-0.00000035 0.00000082 0.00000167
-0.00000149 0.00000344 0.00000619
-0.00000127 0.00000232 0.00000462
-0.00000073 -0.00000092 -0.00000226
0.00000171 0.00000191 0.00000446
0.00000169 0.00000233 0.00000494
0.00000078 0.00000115 0.00000299
0.00000027 0.00000043 0.00000096
-0.00000034 -0.00000066 -0.00000154
0.00000166 0.00000408 0.00001004
-0.00000164 0.00000533 0.00001262
0.00000007 -0.00000017 -0.00000038
0.00000106 -0.00000191 -0.00000433
-0.00000107 0.00000156 0.00000348
0.00000023 -0.00000033 -0.00000084
0.00000005 -0.00000006 -0.00000014
-0.00000217 0.00000271 0.00000585
-0.00000200 0.00000207 0.00000493
0.00000032 0.00000026 0.00000080
0.00000250 0.00000185 0.00000533
0.00000212 0.00000193 0.00000499
-0.00000057 -0.00000058 -0.00000158
0.00000161 0.00000184 0.00000534
-0.00000168 0.00000196 0.00000569
0.00000021 -0.00000020 -0.00000063
0.00000034 -0.00000031 -0.00000086
-0.00000009 -0.00000006 -0.00000023
-0.00000017 -0.00000011 -0.00000039
0.00000124 0.00000110 0.00000363
0.00000030 -0.00000023 -0.00000077
-0.00000163 0.00000118 0.00000366
0.00000063 -0.00000038 -0.00000144
-0.00000263 0.00000154 0.00000520
-0.00000127 -0.00000050 -0.00000271
0.00000250 0.00000095 0.00000466
0.00000164 0.00000081 0.00000334
-0.00000095 -0.00000050 -0.00000224
-0.00000423 0.00000266 0.00001131
0.00000176 -0.00000086 -0.00000412
-0.00000060 0.00000029 0.00000122
0.00000072 -0.00000027 -0.00000151
-0.00000254 0.00000100 0.00000475
-0.00000008 -0.00000002 -0.00000017
-0.00000008 -0.00000002 -0.00000016
0.00000585 0.00000243 0.00001450
-0.00000395 0.00000137 0.00000934
0.00000086 -0.00000022 -0.00000181
-0.00000203 0.00000060 0.00000381
0.00000158 0.00000014 0.00000294
0.00000381 0.00000044 0.00000636
0.00000242 0.00000047 0.00000433
-0.00000217 -0.00000039 -0.00000441
-0.00000789 0.00000157 0.00001910
0.00000256 -0.00000035 -0.00000541
-0.00000057 0.00000011 0.00000107
0.00000018 -0.00000000 0.00000034
0.00000349 0.00000008 0.00000590
-0.00000096 -0.00000006 -0.00000201
-0.00000720 0.00000028 0.00001684
0.00000309 -0.00000011 -0.00000633
-0.00000124 0.00000011 0.00000230
0.00000036 -0.00000005 0.00000068
0.00000327 -0.00000024 0.00000556
0.00000093 -0.00000007 0.00000200
-0.00000733 -0.00000082 0.00001720
0.00000128 0.00000008 -0.00000266
-0.00000147 -0.00000003 0.00000270
0.00000171 -0.00000042 0.00000323
0.00000355 -0.00000062 0.00000603
-0.00000083 0.00000017 -0.00000176
0.00000573 -0.00000182 0.00001386
-0.00000517 -0.00000131 0.00001217
0.00000217 0.00000040 -0.00000451
-0.00000166 -0.00000020 0.00000307
0.00000388 -0.00000108 0.00000656
-0.00000219 0.00000073 -0.00000464
0.00000216 -0.00000078 0.00000406
0.00000160 -0.00000072 0.00000384
-0.00000312 -0.00000123 0.00000738
0.00000258 0.00000078 -0.00000538
-0.00000170 -0.00000039 0.00000314
-0.00000063 0.00000029 -0.00000133
0.00000299 -0.00000142 0.00000558
-0.00000065 0.00000038 -0.00000153
-0.00000358 -0.00000241 0.00000981
0.00000041 0.00000022 -0.00000098
0.00000020 0.00000009 -0.00000043
-0.00000221 -0.00000075 0.00000411
0.00000189 -0.00000111 0.00000394
0.00000106 -0.00000078 0.00000286
-0.00000011 0.00000008 -0.00000025
0.00000307 -0.00000276 0.00000936
-0.00000252 -0.00000256 0.00000799
-0.00000001 -0.00000001 0.00000003
0.00000192 0.00000130 -0.00000457
-0.00000306 -0.00000139 0.00000569
-0.00000156 -0.00000086 0.00000327
-0.00000131 0.00000120 -0.00000351
0.00000177 -0.00000149 0.00000406
0.00000165 -0.00000183 0.00000539
-0.00000019 0.00000027 -0.00000068
0.00000220 -0.00000379 0.00000993
-0.00000333 -0.00000505 0.00001382
0.00000088 0.00000109 -0.00000297
0.00000071 0.00000072 -0.00000198
-0.00000233 -0.00000161 0.00000491
-0.00000134 -0.00000112 0.00000323
0.00000192 -0.00000193 0.00000472
0.00000014 -0.00000016 0.00000041
-0.00000114 0.00000199 -0.00000451
0.00000111 -0.00000159 0.00000353
-0.00000000 0.00000000 -0.00000001
0.00000127 -0.00000407 0.00000951
0.00000132 -0.00000716 0.00001699
0.00000025 -0.00000713 0.00001661
-0.00000076 -0.00000715 0.00001684
-0.00000140 -0.00000571 0.00001348
-0.00000083 -0.00000216 0.00000510
0.00000022 0.00000042 -0.00000099
0.00000041 0.00000062 -0.00000146
-0.00000200 -0.00000202 0.00000493
-0.00000019 -0.00000023 0.00000056
0.00000144 -0.00000254 0.00000504
-0.00000020 0.00000060 -0.00000124
0.00000074 -0.00000163 0.00000329
-0.00000067 0.00000301 -0.00000623
-0.00000007 0.00000060 -0.00000126
-0.00000013 0.00000297 -0.00000602
0.00000016 0.00000283 -0.00000586
0.00000023 0.00000134 -0.00000279
0.00000025 0.00000086 -0.00000179
0.00000043 0.00000101 -0.00000211
-0.00000164 -0.00000241 0.00000503
-0.00000094 -0.00000172 0.00000357
0.00000103 -0.00000294 0.00000536
0.00000048 -0.00000199 0.00000365
0.00000019 -0.00000155 0.00000288
0.00000001 -0.00000160 0.00000293
-0.00000012 -0.00000115 0.00000212
-0.00000046 -0.00000212 0.00000394
-0.00000078 -0.00000235 0.00000437
-0.00000133 -0.00000297 0.00000551
0.00000127 0.00000471 0.00000707
0.00000172 0.00000487 0.00000705
0.00000139 0.00000515 0.00000695
0.00000085 0.00000438 0.00000687
0.00000091 0.00000509 0.00000704
0.00000055 0.00000476 0.00000705
0.00000039 0.00000518 0.00000703
0.00000014 0.00000466 0.00000698
-0.00000009 0.00000516 0.00000704
-0.00000031 0.00000457 0.00000695
-0.00000054 0.00000516 0.00000704
-0.00000079 0.00000470 0.00000704
-0.00000101 0.00000519 0.00000699
-0.00000126 0.00000481 0.00000709
-0.00000149 0.00000519 0.00000689
-0.00000172 0.00000489 0.00000707
0.00000229 0.00000415 0.00000703
0.00000276 0.00000435 0.00000705
0.00000246 0.00000468 0.00000699
0.00000172 0.00000371 0.00000657
0.00000202 0.00000453 0.00000708
0.00000153 0.00000425 0.00000692
0.00000103 0.00000370 0.00000630
-0.00000146 0.00000428 0.00000693
-0.00000211 0.00000487 0.00000700
-0.00000193 0.00000444 0.00000709
-0.00000209 0.00000393 0.00000691
-0.00000239 0.00000458 0.00000710
-0.00000261 0.00000420 0.00000713
0.00000276 0.00000336 0.00000676
0.00000338 0.00000372 0.00000708
0.00000308 0.00000403 0.00000706
0.00000253 0.00000374 0.00000689
0.00000181 0.00000309 0.00000597
-0.00000223 0.00000341 0.00000661
-0.00000302 0.00000426 0.00000707
-0.00000285 0.00000379 0.00000708
-0.00000305 0.00000342 0.00000697
-0.00000338 0.00000399 0.00000704
-0.00000359 0.00000355 0.00000708
0.00000339 0.00000283 0.00000687
0.00000401 0.00000311 0.00000710
0.00000369 0.00000343 0.00000710
0.00000305 0.00000308 0.00000678
-0.00000317 0.00000302 0.00000678
-0.00000401 0.00000347 0.00000695
-0.00000370 0.00000303 0.00000703
-0.00000424 0.00000307 0.00000699
0.00000413 0.00000233 0.00000705
0.00000466 0.00000249 0.00000702
0.00000434 0.00000281 0.00000708
0.00000374 0.00000257 0.00000694
-0.00000258 0.00000218 0.00000566
-0.00000334 0.00000234 0.00000655
-0.00000401 0.00000271 0.00000703
0.00000366 0.00000174 0.00000655
0.00000449 0.00000206 0.00000710
0.00000299 0.00000178 0.00000582
-0.00000392 0.00000224 0.00000685
-0.00000445 0.00000263 0.00000700
-0.00000367 0.00000170 0.00000642
-0.00000451 0.00000218 0.00000701
0.00000462 0.00000130 0.00000704
0.00000509 0.00000148 0.00000701
0.00000483 0.00000177 0.00000707
0.00000416 0.00000154 0.00000686
-0.00000390 0.00000132 0.00000658
-0.00000453 0.00000174 0.00000700
0.00000447 0.00000082 0.00000696
0.00000508 0.00000107 0.00000708
0.00000351 0.00000097 0.00000599
-0.00000367 0.00000086 0.00000615
-0.00000461 0.00000128 0.00000700
-0.00000462 0.00000082 0.00000696
-0.00000508 0.00000111 0.00000698
0.00000466 0.00000036 0.00000708
0.00000511 0.00000064 0.00000712
-0.00000359 0.00000048 0.00000597
-0.00000465 0.00000038 0.00000698
-0.00000513 0.00000064 0.00000700
0.00000462 -0.00000009 0.00000704
0.00000517 0.00000016 0.00000714
-0.00000374 0.00000013 0.00000620
-0.00000471 -0.00000006 0.00000703
-0.00000517 0.00000018 0.00000703
0.00000461 -0.00000052 0.00000705
0.00000517 -0.00000030 0.00000714
-0.00000384 -0.00000026 0.00000634
-0.00000474 -0.00000051 0.00000707
-0.00000520 -0.00000029 0.00000704
0.00000467 -0.00000096 0.00000712
0.00000516 -0.00000075 0.00000712
-0.00000388 -0.00000064 0.00000643
-0.00000474 -0.00000095 0.00000707
-0.00000520 -0.00000075 0.00000702
0.00000471 -0.00000142 0.00000715
0.00000515 -0.00000121 0.00000708
0.00000404 -0.00000155 0.00000680
-0.00000395 -0.00000105 0.00000655
-0.00000517 -0.00000120 0.00000698
-0.00000474 -0.00000141 0.00000708
0.00000511 -0.00000166 0.00000700
0.00000422 -0.00000207 0.00000704
0.00000472 -0.00000189 0.00000713
-0.00000409 -0.00000151 0.00000680
-0.00000473 -0.00000187 0.00000709
0.00000365 -0.00000216 0.00000672
0.00000470 -0.00000236 0.00000706
0.00000287 -0.00000205 0.00000589
-0.00000352 -0.00000202 0.00000658
-0.00000422 -0.00000201 0.00000703
-0.00000469 -0.00000233 0.00000705
0.00000431 -0.00000259 0.00000712
0.00000385 -0.00000276 0.00000704
0.00000433 -0.00000306 0.00000702
-0.00000303 -0.00000254 0.00000648
-0.00000370 -0.00000259 0.00000696
-0.00000425 -0.00000251 0.00000713
-0.00000421 -0.00000298 0.00000711
0.00000327 -0.00000283 0.00000677
0.00000396 -0.00000328 0.00000710
0.00000304 -0.00000324 0.00000687
0.00000223 -0.00000273 0.00000593
-0.00000237 -0.00000286 0.00000607
-0.00000315 -0.00000314 0.00000688
-0.00000410 -0.00000342 0.00000699
-0.00000373 -0.00000312 0.00000712
0.00000361 -0.00000346 0.00000712
0.00000295 -0.00000376 0.00000711
0.00000344 -0.00000385 0.00000712
0.00000236 -0.00000349 0.00000674
0.00000226 -0.00000403 0.00000705
-0.00000206 -0.00000361 0.00000667
-0.00000260 -0.00000371 0.00000692
-0.00000366 -0.00000358 0.00000709
-0.00000313 -0.00000367 0.00000705
0.00000320 -0.00000424 0.00000706
0.00000277 -0.00000424 0.00000717
0.00000169 -0.00000368 0.00000660
0.00000252 -0.00000461 0.00000711
0.00000156 -0.00000429 0.00000701
0.00000108 -0.00000411 0.00000675
0.00000063 -0.00000391 0.00000647
0.00000023 -0.00000382 0.00000633
-0.00000017 -0.00000380 0.00000628
-0.00000057 -0.00000384 0.00000639
-0.00000101 -0.00000401 0.00000670
-0.00000146 -0.00000406 0.00000680
-0.00000200 -0.00000421 0.00000704
-0.00000304 -0.00000415 0.00000707
-0.00000256 -0.00000432 0.00000711
0.00000208 -0.00000451 0.00000718
0.00000182 -0.00000483 0.00000715
0.00000093 -0.00000480 0.00000714
0.00000140 -0.00000485 0.00000716
0.00000048 -0.00000476 0.00000711
0.00000003 -0.00000474 0.00000708
-0.00000043 -0.00000475 0.00000711
-0.00000088 -0.00000476 0.00000715
-0.00000133 -0.00000476 0.00000717
-0.00000112 -0.00000520 0.00000706
-0.00000178 -0.00000470 0.00000714
-0.00000224 -0.00000471 0.00000708
0.00000120 -0.00000522 0.00000702
0.00000073 -0.00000523 0.00000707
0.00000026 -0.00000524 0.00000709
-0.00000020 -0.00000523 0.00000710
-0.00000067 -0.00000522 0.00000709
0.00000182 0.00000520 0.00000672
0.00000110 0.00000541 0.00000672
0.00000065 0.00000543 0.00000678
0.00000017 0.00000547 0.00000678
-0.00000029 0.00000547 0.00000678
-0.00000074 0.00000546 0.00000673
-0.00000119 0.00000544 0.00000664
0.00000284 0.00000471 0.00000675
0.00000251 0.00000499 0.00000659
0.00000215 0.00000496 0.00000688
-0.00000198 0.00000517 0.00000670
-0.00000245 0.00000493 0.00000677
-0.00000281 0.00000464 0.00000690
0.00000351 0.00000413 0.00000686
0.00000317 0.00000442 0.00000684
-0.00000325 0.00000442 0.00000680
-0.00000361 0.00000424 0.00000664
0.00000410 0.00000353 0.00000690
0.00000379 0.00000386 0.00000688
-0.00000381 0.00000388 0.00000684
0.00000440 0.00000322 0.00000685
-0.00000439 0.00000334 0.00000667
0.00000470 0.00000289 0.00000677
0.00000497 0.00000255 0.00000663
-0.00000460 0.00000295 0.00000675
-0.00000484 0.00000249 0.00000676
0.00000523 0.00000181 0.00000673
0.00000494 0.00000216 0.00000692
-0.00000493 0.00000203 0.00000688
0.00000536 0.00000133 0.00000676
-0.00000500 0.00000158 0.00000694
-0.00000524 0.00000180 0.00000661
-0.00000533 0.00000135 0.00000669
0.00000542 0.00000088 0.00000684
-0.00000540 0.00000088 0.00000673
0.00000546 0.00000043 0.00000688
-0.00000545 0.00000042 0.00000676
0.00000548 -0.00000004 0.00000688
-0.00000548 -0.00000005 0.00000676
0.00000548 -0.00000051 0.00000686
-0.00000548 -0.00000051 0.00000674
0.00000545 -0.00000096 0.00000681
-0.00000545 -0.00000096 0.00000669
0.00000540 -0.00000141 0.00000672
-0.00000512 -0.00000165 0.00000692
-0.00000540 -0.00000140 0.00000661
0.00000505 -0.00000210 0.00000688
-0.00000504 -0.00000210 0.00000683
0.00000496 -0.00000253 0.00000672
-0.00000493 -0.00000253 0.00000671
0.00000467 -0.00000281 0.00000689
0.00000460 -0.00000321 0.00000663
-0.00000460 -0.00000278 0.00000696
0.00000428 -0.00000348 0.00000680
-0.00000447 -0.00000320 0.00000680
0.00000391 -0.00000376 0.00000693
-0.00000352 -0.00000398 0.00000698
-0.00000395 -0.00000381 0.00000681
0.00000361 -0.00000415 0.00000684
0.00000336 -0.00000445 0.00000672
0.00000296 -0.00000463 0.00000687
-0.00000296 -0.00000455 0.00000689
-0.00000338 -0.00000433 0.00000680
0.00000257 -0.00000493 0.00000679
0.00000218 -0.00000495 0.00000699
0.00000172 -0.00000518 0.00000693
-0.00000156 -0.00000514 0.00000701
-0.00000193 -0.00000504 0.00000697
-0.00000224 -0.00000506 0.00000677
-0.00000263 -0.00000478 0.00000688
0.00000137 -0.00000544 0.00000666
0.00000093 -0.00000549 0.00000674
0.00000047 -0.00000552 0.00000679
0.00000002 -0.00000553 0.00000681
-0.00000044 -0.00000551 0.00000680
-0.00000091 -0.00000548 0.00000676
-0.00000136 -0.00000542 0.00000669

